Converted by xsd2pos.py                 
    1.000000000000000     
    11.1038399999999999    0.0000000000000000    0.0000000000000000
     0.0000000000000000   11.2002380000000006    0.0000000000000000
     0.0000000000000000    0.0000000000000000   32.4346430000000012
   Mn   O    La   H 
    32    97    32     1
Selective dynamics
Direct
  0.0019192929703979  0.9977934763177773  0.4792243460234231   T   T   T
  0.2549861276056940  0.2472767772008151  0.4793570879382532   T   T   T
  0.2500000000000000  0.2500000000000000  0.1119130000000013   F   F   F
  0.0000000000000000  0.0000000000000000  0.1119130000000013   F   F   F
  0.0000000000000000  0.0000000000000000  0.2335179999999966   F   F   F
  0.2500000000000000  0.2500000000000000  0.2335179999999966   F   F   F
  0.2511750188413954  0.2506955563359559  0.3562081275361987   T   T   T
  0.0047123898902591  0.0016191148294109  0.3557118844634575   T   T   T
  0.0021727373152108  0.4980674678218719  0.4785217819938142   T   T   T
  0.2525586289496471  0.7502874214638137  0.4787254957343664   T   T   T
  0.2500000000000000  0.7500000000000000  0.1119130000000013   F   F   F
  0.0000000000000000  0.5000000000000000  0.1119130000000013   F   F   F
  0.0000000000000000  0.5000000000000000  0.2335179999999966   F   F   F
  0.2500000000000000  0.7500000000000000  0.2335179999999966   F   F   F
  0.2492986277773233  0.7529433110307396  0.3557644203961897   T   T   T
  0.0045322079717815  0.5016046107749998  0.3559145234218286   T   T   T
  0.5024969387367656  0.9975585957191068  0.4788624697635063   T   T   T
  0.7573329168988717  0.2457442317501806  0.4784645736201866   T   T   T
  0.7500000000000000  0.2500000000000000  0.1119130000000013   F   F   F
  0.5000000000000000  0.0000000000000000  0.1119130000000013   F   F   F
  0.5000000000000000  0.0000000000000000  0.2335179999999966   F   F   F
  0.7500000000000000  0.2500000000000000  0.2335179999999966   F   F   F
  0.7512916362753569  0.2476878165896215  0.3560889018767571   T   T   T
  0.5042112032953875  0.0012600975573068  0.3559257558599136   T   T   T
  0.5042265387850113  0.4976310359007616  0.4830466623392671   T   T   T
  0.7547710100948818  0.7475608951435441  0.4785601434366744   T   T   T
  0.7500000000000000  0.7500000000000000  0.1119130000000013   F   F   F
  0.5000000000000000  0.5000000000000000  0.1119130000000013   F   F   F
  0.5000000000000000  0.5000000000000000  0.2335179999999966   F   F   F
  0.7500000000000000  0.7500000000000000  0.2335179999999966   F   F   F
  0.7487052458207213  0.7505175111736929  0.3557882267547138   T   T   T
  0.5057414891580285  0.5005072423116081  0.3572750182195533   T   T   T
  0.1422340000000020  0.1070800000000034  0.1216050000000024   F   F   F
  0.3577670000000026  0.3929199999999966  0.1022210000000001   F   F   F
  0.3922329999999974  0.1429189999999991  0.1022210000000001   F   F   F
  0.1077670000000026  0.3570800000000034  0.1216050000000024   F   F   F
  0.1077670000000026  0.3570800000000034  0.2238270000000000   F   F   F
  0.1422340000000020  0.1070800000000034  0.2238270000000000   F   F   F
  0.4630960000000002  0.0077810000000014  0.1727160000000012   F   F   F
  0.0369039999999998  0.4922189999999986  0.0511109999999988   F   F   F
  0.2130960000000002  0.2422189999999986  0.0511109999999988   F   F   F
  0.2869039999999998  0.2577810000000014  0.1727160000000012   F   F   F
  0.1559930148162071  0.1078366328718778  0.3626593608376831   T   T   T
  0.3595356863920221  0.3939844084686414  0.3461487015962089   T   T   T
  0.3909769107272238  0.1482894805466942  0.3448906038207051   T   T   T
  0.1092932336651174  0.3487038309830702  0.3623867084821368   T   T   T
  0.1299279129141439  0.3748917837975935  0.4704264965269637   T   T   T
  0.3922329999999974  0.1429189999999991  0.2432099999999977   F   F   F
  0.3577670000000026  0.3929199999999966  0.2432099999999977   F   F   F
  0.1277600278422414  0.1242500651964728  0.4707673484873516   T   T   T
  0.4774447620797229  0.0043678546081118  0.4128092986342125   T   T   T
  0.0353039999999964  0.4927890000000019  0.2948599999999999   F   F   F
  0.2146789999999967  0.2427849999999978  0.2948609999999974   F   F   F
  0.2786952688225744  0.2541706218853848  0.4132526844610006   T   T   T
  0.1422340000000020  0.6070810000000009  0.1216050000000024   F   F   F
  0.3577670000000026  0.8929189999999991  0.1022210000000001   F   F   F
  0.3922329999999974  0.6429189999999991  0.1022210000000001   F   F   F
  0.1077670000000026  0.8570810000000009  0.1216050000000024   F   F   F
  0.1077670000000026  0.8570810000000009  0.2238270000000000   F   F   F
  0.1422340000000020  0.6070810000000009  0.2238270000000000   F   F   F
  0.4630960000000002  0.5077810000000014  0.1727160000000012   F   F   F
  0.0369039999999998  0.9922189999999986  0.0511109999999988   F   F   F
  0.2130960000000002  0.7422189999999986  0.0511109999999988   F   F   F
  0.2869039999999998  0.7577810000000014  0.1727160000000012   F   F   F
  0.1545724836137498  0.6076813329389615  0.3628208561155038   T   T   T
  0.3530839644213489  0.8917038018848277  0.3447713504140738   T   T   T
  0.3882425672444419  0.6514764084221860  0.3463026604641597   T   T   T
  0.1032960071122696  0.8493668270736559  0.3614675699829125   T   T   T
  0.1275079261427364  0.8762240117335138  0.4706636719108364   T   T   T
  0.3922329999999974  0.6429189999999991  0.2432099999999977   F   F   F
  0.3577670000000026  0.8929189999999991  0.2432099999999977   F   F   F
  0.1256088529982928  0.6253668046780190  0.4700749172852045   T   T   T
  0.4816805921326053  0.5003848904005765  0.4163119488442985   T   T   T
  0.0353039999999964  0.9927899999999994  0.2948639999999969   F   F   F
  0.2146779999999993  0.7427940000000035  0.2948629999999994   F   F   F
  0.2744757874192920  0.7650233216631146  0.4124622894095668   T   T   T
  0.6422329999999974  0.1070800000000034  0.1216050000000024   F   F   F
  0.8577670000000026  0.3929199999999966  0.1022210000000001   F   F   F
  0.8922329999999974  0.1429189999999991  0.1022210000000001   F   F   F
  0.6077670000000026  0.3570800000000034  0.1216050000000024   F   F   F
  0.6077670000000026  0.3570800000000034  0.2238270000000000   F   F   F
  0.6422329999999974  0.1070800000000034  0.2238270000000000   F   F   F
  0.9630960000000002  0.0077810000000014  0.1727160000000012   F   F   F
  0.5369039999999998  0.4922189999999986  0.0511109999999988   F   F   F
  0.7130960000000002  0.2422189999999986  0.0511109999999988   F   F   F
  0.7869039999999998  0.2577810000000014  0.1727160000000012   F   F   F
  0.6568817005095445  0.1024391656545006  0.3623535002654130   T   T   T
  0.8561228596787467  0.3874696991583430  0.3450557844547342   T   T   T
  0.8927080218223490  0.1429666939645727  0.3441737310161614   T   T   T
  0.6111328041177762  0.3440694050849301  0.3634016865866689   T   T   T
  0.6375561432912568  0.3655008530561817  0.4685145683301628   T   T   T
  0.8922329999999974  0.1429189999999991  0.2432099999999977   F   F   F
  0.8577670000000026  0.3929199999999966  0.2432099999999977   F   F   F
  0.6283075348399584  0.1212095292552447  0.4701670355050533   T   T   T
  0.9792856117414503  0.0056792917052812  0.4127308785603593   T   T   T
  0.5353220000000007  0.4927869999999999  0.2948620000000020   F   F   F
  0.7146970000000010  0.2427849999999978  0.2948620000000020   F   F   F
  0.7851521810005236  0.2462768581418143  0.4126752330934527   T   T   T
  0.6422329999999974  0.6070810000000009  0.1216050000000024   F   F   F
  0.8577670000000026  0.8929189999999991  0.1022210000000001   F   F   F
  0.8922329999999974  0.6429189999999991  0.1022210000000001   F   F   F
  0.6077670000000026  0.8570810000000009  0.1216050000000024   F   F   F
  0.6077670000000026  0.8570810000000009  0.2238270000000000   F   F   F
  0.6422329999999974  0.6070810000000009  0.2238270000000000   F   F   F
  0.9630960000000002  0.5077810000000014  0.1727160000000012   F   F   F
  0.5369039999999998  0.9922189999999986  0.0511109999999988   F   F   F
  0.7130960000000002  0.7422189999999986  0.0511109999999988   F   F   F
  0.7869039999999998  0.7577810000000014  0.1727160000000012   F   F   F
  0.6532151187623124  0.6013354551449429  0.3629547962592604   T   T   T
  0.8505426579783210  0.8871320460869626  0.3450758823627835   T   T   T
  0.8879687694658929  0.6463938673221026  0.3446134669405244   T   T   T
  0.6053144471705224  0.8451793456053808  0.3623004169739268   T   T   T
  0.6288594837603906  0.8745133719532198  0.4698832462065782   T   T   T
  0.8922329999999974  0.6429189999999991  0.2432099999999977   F   F   F
  0.8577670000000026  0.8929189999999991  0.2432099999999977   F   F   F
  0.6320334660957967  0.6279015407593161  0.4692647827572110   T   T   T
  0.9784335694861367  0.5049174884071607  0.4126557316030616   T   T   T
  0.5353199999999987  0.9927869999999999  0.2948650000000015   F   F   F
  0.7146960000000036  0.7427920000000015  0.2948639999999969   F   F   F
  0.7802402595055065  0.7563223405552320  0.4125138524797777   T   T   T
  0.8780064533658545  0.1181895665636303  0.4777175688313519   T   T   T
  0.8820989206534511  0.8709144125123870  0.4763460374720022   T   T   T
  0.3756447532558326  0.1198972099838584  0.4769976639878289   T   T   T
  0.3776402080198981  0.3665388124397577  0.4767677355174045   T   T   T
  0.8768267332434492  0.6203303234277899  0.4760155113757317   T   T   T
  0.8849972921260283  0.3695611051118343  0.4756880841785876   T   T   T
  0.3674753683401647  0.6289003637612828  0.4725856071212023   T   T   T
  0.3802865874980129  0.8728458436936827  0.4769141185063106   T   T   T
  0.5161244186190896  0.4974713055857336  0.5397517301497016   T   T   T
  0.2537730000000025  0.0183269999999993  0.0511109999999988   F   F   F
  0.2462269999999975  0.4816730000000007  0.1727160000000012   F   F   F
  0.0037730000000025  0.2316730000000007  0.1727160000000012   F   F   F
  0.4962269999999975  0.2683269999999993  0.0511109999999988   F   F   F
  0.2530560000000008  0.0182980000000015  0.2973989999999986   F   F   F
  0.2573408580800877  0.4971604197582637  0.4247353624460984   T   T   T
  0.0047971204848325  0.2462988949663183  0.4237884288262319   T   T   T
  0.4969409999999996  0.2682939999999974  0.2974000000000032   F   F   F
  0.2537730000000025  0.5183269999999993  0.0511109999999988   F   F   F
  0.2462269999999975  0.9816730000000007  0.1727160000000012   F   F   F
  0.0037730000000025  0.7316730000000007  0.1727160000000012   F   F   F
  0.4962269999999975  0.7683269999999993  0.0511109999999988   F   F   F
  0.2530569999999983  0.5183010000000010  0.2973959999999991   F   F   F
  0.2554265617219466  0.9980060707286051  0.4241584179330002   T   T   T
  0.0020519997276418  0.7474401520064992  0.4237569823578660   T   T   T
  0.4969409999999996  0.7683019999999985  0.2974000000000032   F   F   F
  0.7537730000000025  0.0183269999999993  0.0511109999999988   F   F   F
  0.7462269999999975  0.4816730000000007  0.1727160000000012   F   F   F
  0.5037730000000025  0.2316730000000007  0.1727160000000012   F   F   F
  0.9962269999999975  0.2683269999999993  0.0511109999999988   F   F   F
  0.7530720000000031  0.0183019999999985  0.2974030000000027   F   F   F
  0.7548053982883995  0.4953258002746526  0.4244164382820239   T   T   T
  0.5023278879269019  0.2478744918174605  0.4249631001304278   T   T   T
  0.9969310000000036  0.2682969999999969  0.2973980000000012   F   F   F
  0.7537730000000025  0.5183269999999993  0.0511109999999988   F   F   F
  0.7462269999999975  0.9816730000000007  0.1727160000000012   F   F   F
  0.5037730000000025  0.7316730000000007  0.1727160000000012   F   F   F
  0.9962269999999975  0.7683269999999993  0.0511109999999988   F   F   F
  0.7530739999999980  0.5183040000000005  0.2973989999999986   F   F   F
  0.7568115162102612  0.9967570982009044  0.4238582903818965   T   T   T
  0.4994176245398150  0.7466127466968576  0.4247390569581598   T   T   T
  0.9969310000000036  0.7683049999999980  0.2973989999999986   F   F   F
  0.4655983728862358  0.4330342390070511  0.5502803386044293   T   T   T
 
  0.00000000E+00  0.00000000E+00  0.00000000E+00
  0.00000000E+00  0.00000000E+00  0.00000000E+00
  0.00000000E+00  0.00000000E+00  0.00000000E+00
  0.00000000E+00  0.00000000E+00  0.00000000E+00
  0.00000000E+00  0.00000000E+00  0.00000000E+00
  0.00000000E+00  0.00000000E+00  0.00000000E+00
  0.00000000E+00  0.00000000E+00  0.00000000E+00
  0.00000000E+00  0.00000000E+00  0.00000000E+00
  0.00000000E+00  0.00000000E+00  0.00000000E+00
  0.00000000E+00  0.00000000E+00  0.00000000E+00
  0.00000000E+00  0.00000000E+00  0.00000000E+00
  0.00000000E+00  0.00000000E+00  0.00000000E+00
  0.00000000E+00  0.00000000E+00  0.00000000E+00
  0.00000000E+00  0.00000000E+00  0.00000000E+00
  0.00000000E+00  0.00000000E+00  0.00000000E+00
  0.00000000E+00  0.00000000E+00  0.00000000E+00
  0.00000000E+00  0.00000000E+00  0.00000000E+00
  0.00000000E+00  0.00000000E+00  0.00000000E+00
  0.00000000E+00  0.00000000E+00  0.00000000E+00
  0.00000000E+00  0.00000000E+00  0.00000000E+00
  0.00000000E+00  0.00000000E+00  0.00000000E+00
  0.00000000E+00  0.00000000E+00  0.00000000E+00
  0.00000000E+00  0.00000000E+00  0.00000000E+00
  0.00000000E+00  0.00000000E+00  0.00000000E+00
  0.00000000E+00  0.00000000E+00  0.00000000E+00
  0.00000000E+00  0.00000000E+00  0.00000000E+00
  0.00000000E+00  0.00000000E+00  0.00000000E+00
  0.00000000E+00  0.00000000E+00  0.00000000E+00
  0.00000000E+00  0.00000000E+00  0.00000000E+00
  0.00000000E+00  0.00000000E+00  0.00000000E+00
  0.00000000E+00  0.00000000E+00  0.00000000E+00
  0.00000000E+00  0.00000000E+00  0.00000000E+00
  0.00000000E+00  0.00000000E+00  0.00000000E+00
  0.00000000E+00  0.00000000E+00  0.00000000E+00
  0.00000000E+00  0.00000000E+00  0.00000000E+00
  0.00000000E+00  0.00000000E+00  0.00000000E+00
  0.00000000E+00  0.00000000E+00  0.00000000E+00
  0.00000000E+00  0.00000000E+00  0.00000000E+00
  0.00000000E+00  0.00000000E+00  0.00000000E+00
  0.00000000E+00  0.00000000E+00  0.00000000E+00
  0.00000000E+00  0.00000000E+00  0.00000000E+00
  0.00000000E+00  0.00000000E+00  0.00000000E+00
  0.00000000E+00  0.00000000E+00  0.00000000E+00
  0.00000000E+00  0.00000000E+00  0.00000000E+00
  0.00000000E+00  0.00000000E+00  0.00000000E+00
  0.00000000E+00  0.00000000E+00  0.00000000E+00
  0.00000000E+00  0.00000000E+00  0.00000000E+00
  0.00000000E+00  0.00000000E+00  0.00000000E+00
  0.00000000E+00  0.00000000E+00  0.00000000E+00
  0.00000000E+00  0.00000000E+00  0.00000000E+00
  0.00000000E+00  0.00000000E+00  0.00000000E+00
  0.00000000E+00  0.00000000E+00  0.00000000E+00
  0.00000000E+00  0.00000000E+00  0.00000000E+00
  0.00000000E+00  0.00000000E+00  0.00000000E+00
  0.00000000E+00  0.00000000E+00  0.00000000E+00
  0.00000000E+00  0.00000000E+00  0.00000000E+00
  0.00000000E+00  0.00000000E+00  0.00000000E+00
  0.00000000E+00  0.00000000E+00  0.00000000E+00
  0.00000000E+00  0.00000000E+00  0.00000000E+00
  0.00000000E+00  0.00000000E+00  0.00000000E+00
  0.00000000E+00  0.00000000E+00  0.00000000E+00
  0.00000000E+00  0.00000000E+00  0.00000000E+00
  0.00000000E+00  0.00000000E+00  0.00000000E+00
  0.00000000E+00  0.00000000E+00  0.00000000E+00
  0.00000000E+00  0.00000000E+00  0.00000000E+00
  0.00000000E+00  0.00000000E+00  0.00000000E+00
  0.00000000E+00  0.00000000E+00  0.00000000E+00
  0.00000000E+00  0.00000000E+00  0.00000000E+00
  0.00000000E+00  0.00000000E+00  0.00000000E+00
  0.00000000E+00  0.00000000E+00  0.00000000E+00
  0.00000000E+00  0.00000000E+00  0.00000000E+00
  0.00000000E+00  0.00000000E+00  0.00000000E+00
  0.00000000E+00  0.00000000E+00  0.00000000E+00
  0.00000000E+00  0.00000000E+00  0.00000000E+00
  0.00000000E+00  0.00000000E+00  0.00000000E+00
  0.00000000E+00  0.00000000E+00  0.00000000E+00
  0.00000000E+00  0.00000000E+00  0.00000000E+00
  0.00000000E+00  0.00000000E+00  0.00000000E+00
  0.00000000E+00  0.00000000E+00  0.00000000E+00
  0.00000000E+00  0.00000000E+00  0.00000000E+00
  0.00000000E+00  0.00000000E+00  0.00000000E+00
  0.00000000E+00  0.00000000E+00  0.00000000E+00
  0.00000000E+00  0.00000000E+00  0.00000000E+00
  0.00000000E+00  0.00000000E+00  0.00000000E+00
  0.00000000E+00  0.00000000E+00  0.00000000E+00
  0.00000000E+00  0.00000000E+00  0.00000000E+00
  0.00000000E+00  0.00000000E+00  0.00000000E+00
  0.00000000E+00  0.00000000E+00  0.00000000E+00
  0.00000000E+00  0.00000000E+00  0.00000000E+00
  0.00000000E+00  0.00000000E+00  0.00000000E+00
  0.00000000E+00  0.00000000E+00  0.00000000E+00
  0.00000000E+00  0.00000000E+00  0.00000000E+00
  0.00000000E+00  0.00000000E+00  0.00000000E+00
  0.00000000E+00  0.00000000E+00  0.00000000E+00
  0.00000000E+00  0.00000000E+00  0.00000000E+00
  0.00000000E+00  0.00000000E+00  0.00000000E+00
  0.00000000E+00  0.00000000E+00  0.00000000E+00
  0.00000000E+00  0.00000000E+00  0.00000000E+00
  0.00000000E+00  0.00000000E+00  0.00000000E+00
  0.00000000E+00  0.00000000E+00  0.00000000E+00
  0.00000000E+00  0.00000000E+00  0.00000000E+00
  0.00000000E+00  0.00000000E+00  0.00000000E+00
  0.00000000E+00  0.00000000E+00  0.00000000E+00
  0.00000000E+00  0.00000000E+00  0.00000000E+00
  0.00000000E+00  0.00000000E+00  0.00000000E+00
  0.00000000E+00  0.00000000E+00  0.00000000E+00
  0.00000000E+00  0.00000000E+00  0.00000000E+00
  0.00000000E+00  0.00000000E+00  0.00000000E+00
  0.00000000E+00  0.00000000E+00  0.00000000E+00
  0.00000000E+00  0.00000000E+00  0.00000000E+00
  0.00000000E+00  0.00000000E+00  0.00000000E+00
  0.00000000E+00  0.00000000E+00  0.00000000E+00
  0.00000000E+00  0.00000000E+00  0.00000000E+00
  0.00000000E+00  0.00000000E+00  0.00000000E+00
  0.00000000E+00  0.00000000E+00  0.00000000E+00
  0.00000000E+00  0.00000000E+00  0.00000000E+00
  0.00000000E+00  0.00000000E+00  0.00000000E+00
  0.00000000E+00  0.00000000E+00  0.00000000E+00
  0.00000000E+00  0.00000000E+00  0.00000000E+00
  0.00000000E+00  0.00000000E+00  0.00000000E+00
  0.00000000E+00  0.00000000E+00  0.00000000E+00
  0.00000000E+00  0.00000000E+00  0.00000000E+00
  0.00000000E+00  0.00000000E+00  0.00000000E+00
  0.00000000E+00  0.00000000E+00  0.00000000E+00
  0.00000000E+00  0.00000000E+00  0.00000000E+00
  0.00000000E+00  0.00000000E+00  0.00000000E+00
  0.00000000E+00  0.00000000E+00  0.00000000E+00
  0.00000000E+00  0.00000000E+00  0.00000000E+00
  0.00000000E+00  0.00000000E+00  0.00000000E+00
  0.00000000E+00  0.00000000E+00  0.00000000E+00
  0.00000000E+00  0.00000000E+00  0.00000000E+00
  0.00000000E+00  0.00000000E+00  0.00000000E+00
  0.00000000E+00  0.00000000E+00  0.00000000E+00
  0.00000000E+00  0.00000000E+00  0.00000000E+00
  0.00000000E+00  0.00000000E+00  0.00000000E+00
  0.00000000E+00  0.00000000E+00  0.00000000E+00
  0.00000000E+00  0.00000000E+00  0.00000000E+00
  0.00000000E+00  0.00000000E+00  0.00000000E+00
  0.00000000E+00  0.00000000E+00  0.00000000E+00
  0.00000000E+00  0.00000000E+00  0.00000000E+00
  0.00000000E+00  0.00000000E+00  0.00000000E+00
  0.00000000E+00  0.00000000E+00  0.00000000E+00
  0.00000000E+00  0.00000000E+00  0.00000000E+00
  0.00000000E+00  0.00000000E+00  0.00000000E+00
  0.00000000E+00  0.00000000E+00  0.00000000E+00
  0.00000000E+00  0.00000000E+00  0.00000000E+00
  0.00000000E+00  0.00000000E+00  0.00000000E+00
  0.00000000E+00  0.00000000E+00  0.00000000E+00
  0.00000000E+00  0.00000000E+00  0.00000000E+00
  0.00000000E+00  0.00000000E+00  0.00000000E+00
  0.00000000E+00  0.00000000E+00  0.00000000E+00
  0.00000000E+00  0.00000000E+00  0.00000000E+00
  0.00000000E+00  0.00000000E+00  0.00000000E+00
  0.00000000E+00  0.00000000E+00  0.00000000E+00
  0.00000000E+00  0.00000000E+00  0.00000000E+00
  0.00000000E+00  0.00000000E+00  0.00000000E+00
  0.00000000E+00  0.00000000E+00  0.00000000E+00
  0.00000000E+00  0.00000000E+00  0.00000000E+00
  0.00000000E+00  0.00000000E+00  0.00000000E+00
  0.00000000E+00  0.00000000E+00  0.00000000E+00
  0.00000000E+00  0.00000000E+00  0.00000000E+00
  0.00000000E+00  0.00000000E+00  0.00000000E+00
