Converted by xsd2pos.py                 
    1.000000000000000     
    11.1038399999999999    0.0000000000000000    0.0000000000000000
     0.0000000000000000   11.2002380000000006    0.0000000000000000
     0.0000000000000000    0.0000000000000000   32.4346430000000012
   Mn   O    La   H 
    32    96    32     1
Selective dynamics
Direct
  0.0019088712682884  0.9964337625475144  0.4771825346516155   T   T   T
  0.2569468791516070  0.2439872704427302  0.4771377003123711   T   T   T
  0.2500000000000000  0.2500000000000000  0.1119130000000013   F   F   F
  0.0000000000000000  0.0000000000000000  0.1119130000000013   F   F   F
  0.0000000000000000  0.0000000000000000  0.2335179999999966   F   F   F
  0.2500000000000000  0.2500000000000000  0.2335179999999966   F   F   F
  0.2500610694996849  0.2490885183399971  0.3550872130722634   T   T   T
  0.0050878022563300  0.0005819196385234  0.3552050892619040   T   T   T
  0.0029536860730553  0.4931706086094317  0.4773607137105578   T   T   T
  0.2540819149433770  0.7484570948257565  0.4799348113376612   T   T   T
  0.2500000000000000  0.7500000000000000  0.1119130000000013   F   F   F
  0.0000000000000000  0.5000000000000000  0.1119130000000013   F   F   F
  0.0000000000000000  0.5000000000000000  0.2335179999999966   F   F   F
  0.2500000000000000  0.7500000000000000  0.2335179999999966   F   F   F
  0.2500620887485525  0.7484158159436608  0.3561275543205795   T   T   T
  0.0037109135200242  0.5007321957932923  0.3548194264294486   T   T   T
  0.5053232660962064  0.9953455254466067  0.4770091241996590   T   T   T
  0.7569672134244647  0.2448661826577870  0.4769181862204606   T   T   T
  0.7500000000000000  0.2500000000000000  0.1119130000000013   F   F   F
  0.5000000000000000  0.0000000000000000  0.1119130000000013   F   F   F
  0.5000000000000000  0.0000000000000000  0.2335179999999966   F   F   F
  0.7500000000000000  0.2500000000000000  0.2335179999999966   F   F   F
  0.7499740390904697  0.2509566427824081  0.3551268230177618   T   T   T
  0.5047999095809137  0.0021432507792860  0.3547866711036902   T   T   T
  0.5084450464050781  0.4892961821032384  0.4776809625921272   T   T   T
  0.7550000284177845  0.7449968642243856  0.4770157804237998   T   T   T
  0.7500000000000000  0.7500000000000000  0.1119130000000013   F   F   F
  0.5000000000000000  0.5000000000000000  0.1119130000000013   F   F   F
  0.5000000000000000  0.5000000000000000  0.2335179999999966   F   F   F
  0.7500000000000000  0.7500000000000000  0.2335179999999966   F   F   F
  0.7509594725857595  0.7503598572486005  0.3550858582809738   T   T   T
  0.5033907222072833  0.5025717088804752  0.3557548142102134   T   T   T
  0.1422340000000020  0.1070800000000034  0.1216050000000024   F   F   F
  0.3577670000000026  0.3929199999999966  0.1022210000000001   F   F   F
  0.3922329999999974  0.1429189999999991  0.1022210000000001   F   F   F
  0.1077670000000026  0.3570800000000034  0.1216050000000024   F   F   F
  0.1077670000000026  0.3570800000000034  0.2238270000000000   F   F   F
  0.1422340000000020  0.1070800000000034  0.2238270000000000   F   F   F
  0.4630960000000002  0.0077810000000014  0.1727160000000012   F   F   F
  0.0369039999999998  0.4922189999999986  0.0511109999999988   F   F   F
  0.2130960000000002  0.2422189999999986  0.0511109999999988   F   F   F
  0.2869039999999998  0.2577810000000014  0.1727160000000012   F   F   F
  0.1543633375771853  0.1054140480791917  0.3627021100580398   T   T   T
  0.3528863962921703  0.3897191422455535  0.3458702142246552   T   T   T
  0.3900284413118855  0.1467932176376160  0.3444320941771045   T   T   T
  0.1108596010957421  0.3490971876468068  0.3634228208998073   T   T   T
  0.1318863639159470  0.3693933000368082  0.4684373973116544   T   T   T
  0.3922329999999974  0.1429189999999991  0.2432099999999977   F   F   F
  0.3577670000000026  0.3929199999999966  0.2432099999999977   F   F   F
  0.1297145860733478  0.1230065858758164  0.4684675465952271   T   T   T
  0.4793628995610471  0.0078888729879149  0.4116886258525026   T   T   T
  0.0353039999999964  0.4927890000000019  0.2948599999999999   F   F   F
  0.2146789999999967  0.2427849999999978  0.2948609999999974   F   F   F
  0.2827070402017821  0.2530302972368739  0.4121553728435143   T   T   T
  0.1422340000000020  0.6070810000000009  0.1216050000000024   F   F   F
  0.3577670000000026  0.8929189999999991  0.1022210000000001   F   F   F
  0.3922329999999974  0.6429189999999991  0.1022210000000001   F   F   F
  0.1077670000000026  0.8570810000000009  0.1216050000000024   F   F   F
  0.1077670000000026  0.8570810000000009  0.2238270000000000   F   F   F
  0.1422340000000020  0.6070810000000009  0.2238270000000000   F   F   F
  0.4630960000000002  0.5077810000000014  0.1727160000000012   F   F   F
  0.0369039999999998  0.9922189999999986  0.0511109999999988   F   F   F
  0.2130960000000002  0.7422189999999986  0.0511109999999988   F   F   F
  0.2869039999999998  0.7577810000000014  0.1727160000000012   F   F   F
  0.1533223143073671  0.6042667161143763  0.3621682791804027   T   T   T
  0.3539829126862905  0.8885880118849581  0.3467322563222788   T   T   T
  0.3898681710879092  0.6465527265289129  0.3441949183347748   T   T   T
  0.1097289647844033  0.8465005845084469  0.3642434705964470   T   T   T
  0.1249180333569720  0.8772713674176310  0.4689026445350122   T   T   T
  0.3922329999999974  0.6429189999999991  0.2432099999999977   F   F   F
  0.3577670000000026  0.8929189999999991  0.2432099999999977   F   F   F
  0.1267461291967791  0.6133012643842779  0.4701764563707590   T   T   T
  0.4679403360901543  0.5146662669449374  0.4136404279238268   T   T   T
  0.0353039999999964  0.9927899999999994  0.2948639999999969   F   F   F
  0.2146779999999993  0.7427940000000035  0.2948629999999994   F   F   F
  0.2840351801800405  0.7417254196213244  0.4144547415019184   T   T   T
  0.6422329999999974  0.1070800000000034  0.1216050000000024   F   F   F
  0.8577670000000026  0.3929199999999966  0.1022210000000001   F   F   F
  0.8922329999999974  0.1429189999999991  0.1022210000000001   F   F   F
  0.6077670000000026  0.3570800000000034  0.1216050000000024   F   F   F
  0.6077670000000026  0.3570800000000034  0.2238270000000000   F   F   F
  0.6422329999999974  0.1070800000000034  0.2238270000000000   F   F   F
  0.9630960000000002  0.0077810000000014  0.1727160000000012   F   F   F
  0.5369039999999998  0.4922189999999986  0.0511109999999988   F   F   F
  0.7130960000000002  0.2422189999999986  0.0511109999999988   F   F   F
  0.7869039999999998  0.2577810000000014  0.1727160000000012   F   F   F
  0.6534280809241509  0.1083610123639792  0.3624717739707373   T   T   T
  0.8546771941911061  0.3905671458322372  0.3452572246914019   T   T   T
  0.8894996617417892  0.1480104912932760  0.3445921849537075   T   T   T
  0.6082191998994082  0.3508554859830464  0.3634195329169604   T   T   T
  0.6320078936596280  0.3715075094450070  0.4667844552504892   T   T   T
  0.8922329999999974  0.1429189999999991  0.2432099999999977   F   F   F
  0.8577670000000026  0.3929199999999966  0.2432099999999977   F   F   F
  0.6294858695775981  0.1230931810026367  0.4685284876461773   T   T   T
  0.9763370001691121  0.0070444991825420  0.4121581005772145   T   T   T
  0.5353220000000007  0.4927869999999999  0.2948620000000020   F   F   F
  0.7146970000000010  0.2427849999999978  0.2948620000000020   F   F   F
  0.7821501843636870  0.2539432197684124  0.4119262220068478   T   T   T
  0.6422329999999974  0.6070810000000009  0.1216050000000024   F   F   F
  0.8577670000000026  0.8929189999999991  0.1022210000000001   F   F   F
  0.8922329999999974  0.6429189999999991  0.1022210000000001   F   F   F
  0.6077670000000026  0.8570810000000009  0.1216050000000024   F   F   F
  0.6077670000000026  0.8570810000000009  0.2238270000000000   F   F   F
  0.6422329999999974  0.6070810000000009  0.2238270000000000   F   F   F
  0.9630960000000002  0.5077810000000014  0.1727160000000012   F   F   F
  0.5369039999999998  0.9922189999999986  0.0511109999999988   F   F   F
  0.7130960000000002  0.7422189999999986  0.0511109999999988   F   F   F
  0.7869039999999998  0.7577810000000014  0.1727160000000012   F   F   F
  0.6528260455123338  0.6083212003875486  0.3630249471484024   T   T   T
  0.8553471631836899  0.8903262609787228  0.3450953282913491   T   T   T
  0.8888568897859054  0.6469378353549814  0.3446134220516319   T   T   T
  0.6093989309541444  0.8496580783816612  0.3626488073355189   T   T   T
  0.6325505854535153  0.8727141885462204  0.4678264784380728   T   T   T
  0.8922329999999974  0.6429189999999991  0.2432099999999977   F   F   F
  0.8577670000000026  0.8929189999999991  0.2432099999999977   F   F   F
  0.6243924022319171  0.6227653113707867  0.4680478535328459   T   T   T
  0.9783789849492921  0.5026922840868151  0.4120947338906259   T   T   T
  0.5353199999999987  0.9927869999999999  0.2948650000000015   F   F   F
  0.7146960000000036  0.7427920000000015  0.2948639999999969   F   F   F
  0.7817353403688539  0.7536518572370803  0.4120050309935301   T   T   T
  0.8745950363142395  0.1193460139138430  0.4759379282513317   T   T   T
  0.8805378385202299  0.8669008138638588  0.4752773954570021   T   T   T
  0.3767718561204500  0.1171354115261189  0.4757038826049179   T   T   T
  0.3846522390694411  0.3669902908751080  0.4760324691677541   T   T   T
  0.8730262571915705  0.6170110732158517  0.4752895230674986   T   T   T
  0.8812465813492314  0.3663046708941923  0.4757209669220424   T   T   T
  0.3767486355967426  0.6006663922838761  0.4950183896881300   T   T   T
  0.3915251499240291  0.8704420370489818  0.4735915223681679   T   T   T
  0.2537730000000025  0.0183269999999993  0.0511109999999988   F   F   F
  0.2462269999999975  0.4816730000000007  0.1727160000000012   F   F   F
  0.0037730000000025  0.2316730000000007  0.1727160000000012   F   F   F
  0.4962269999999975  0.2683269999999993  0.0511109999999988   F   F   F
  0.2530560000000008  0.0182980000000015  0.2973989999999986   F   F   F
  0.2500970064766463  0.4882798480758876  0.4186805014155352   T   T   T
  0.0020053215693457  0.2424075842172709  0.4221990161789078   T   T   T
  0.4969409999999996  0.2682939999999974  0.2974000000000032   F   F   F
  0.2537730000000025  0.5183269999999993  0.0511109999999988   F   F   F
  0.2462269999999975  0.9816730000000007  0.1727160000000012   F   F   F
  0.0037730000000025  0.7316730000000007  0.1727160000000012   F   F   F
  0.4962269999999975  0.7683269999999993  0.0511109999999988   F   F   F
  0.2530569999999983  0.5183010000000010  0.2973959999999991   F   F   F
  0.2570918397029883  0.9934465525537726  0.4227134891277095   T   T   T
  0.0028716576654879  0.7427734297177563  0.4239200941760573   T   T   T
  0.4969409999999996  0.7683019999999985  0.2974000000000032   F   F   F
  0.7537730000000025  0.0183269999999993  0.0511109999999988   F   F   F
  0.7462269999999975  0.4816730000000007  0.1727160000000012   F   F   F
  0.5037730000000025  0.2316730000000007  0.1727160000000012   F   F   F
  0.9962269999999975  0.2683269999999993  0.0511109999999988   F   F   F
  0.7530720000000031  0.0183019999999985  0.2974030000000027   F   F   F
  0.7584810072852419  0.4943297536188629  0.4213757108432918   T   T   T
  0.5032183302088394  0.2403950191892773  0.4215485529930963   T   T   T
  0.9969310000000036  0.2682969999999969  0.2973980000000012   F   F   F
  0.7537730000000025  0.5183269999999993  0.0511109999999988   F   F   F
  0.7462269999999975  0.9816730000000007  0.1727160000000012   F   F   F
  0.5037730000000025  0.7316730000000007  0.1727160000000012   F   F   F
  0.9962269999999975  0.7683269999999993  0.0511109999999988   F   F   F
  0.7530739999999980  0.5183040000000005  0.2973989999999986   F   F   F
  0.7573171198806282  0.9946448538794078  0.4218062639265299   T   T   T
  0.5056747382873296  0.7477807443028633  0.4198576098804597   T   T   T
  0.9969310000000036  0.7683049999999980  0.2973989999999986   F   F   F
  0.3186011403151262  0.5420592107178384  0.5053194120448056   T   T   T
 
  0.00000000E+00  0.00000000E+00  0.00000000E+00
  0.00000000E+00  0.00000000E+00  0.00000000E+00
  0.00000000E+00  0.00000000E+00  0.00000000E+00
  0.00000000E+00  0.00000000E+00  0.00000000E+00
  0.00000000E+00  0.00000000E+00  0.00000000E+00
  0.00000000E+00  0.00000000E+00  0.00000000E+00
  0.00000000E+00  0.00000000E+00  0.00000000E+00
  0.00000000E+00  0.00000000E+00  0.00000000E+00
  0.00000000E+00  0.00000000E+00  0.00000000E+00
  0.00000000E+00  0.00000000E+00  0.00000000E+00
  0.00000000E+00  0.00000000E+00  0.00000000E+00
  0.00000000E+00  0.00000000E+00  0.00000000E+00
  0.00000000E+00  0.00000000E+00  0.00000000E+00
  0.00000000E+00  0.00000000E+00  0.00000000E+00
  0.00000000E+00  0.00000000E+00  0.00000000E+00
  0.00000000E+00  0.00000000E+00  0.00000000E+00
  0.00000000E+00  0.00000000E+00  0.00000000E+00
  0.00000000E+00  0.00000000E+00  0.00000000E+00
  0.00000000E+00  0.00000000E+00  0.00000000E+00
  0.00000000E+00  0.00000000E+00  0.00000000E+00
  0.00000000E+00  0.00000000E+00  0.00000000E+00
  0.00000000E+00  0.00000000E+00  0.00000000E+00
  0.00000000E+00  0.00000000E+00  0.00000000E+00
  0.00000000E+00  0.00000000E+00  0.00000000E+00
  0.00000000E+00  0.00000000E+00  0.00000000E+00
  0.00000000E+00  0.00000000E+00  0.00000000E+00
  0.00000000E+00  0.00000000E+00  0.00000000E+00
  0.00000000E+00  0.00000000E+00  0.00000000E+00
  0.00000000E+00  0.00000000E+00  0.00000000E+00
  0.00000000E+00  0.00000000E+00  0.00000000E+00
  0.00000000E+00  0.00000000E+00  0.00000000E+00
  0.00000000E+00  0.00000000E+00  0.00000000E+00
  0.00000000E+00  0.00000000E+00  0.00000000E+00
  0.00000000E+00  0.00000000E+00  0.00000000E+00
  0.00000000E+00  0.00000000E+00  0.00000000E+00
  0.00000000E+00  0.00000000E+00  0.00000000E+00
  0.00000000E+00  0.00000000E+00  0.00000000E+00
  0.00000000E+00  0.00000000E+00  0.00000000E+00
  0.00000000E+00  0.00000000E+00  0.00000000E+00
  0.00000000E+00  0.00000000E+00  0.00000000E+00
  0.00000000E+00  0.00000000E+00  0.00000000E+00
  0.00000000E+00  0.00000000E+00  0.00000000E+00
  0.00000000E+00  0.00000000E+00  0.00000000E+00
  0.00000000E+00  0.00000000E+00  0.00000000E+00
  0.00000000E+00  0.00000000E+00  0.00000000E+00
  0.00000000E+00  0.00000000E+00  0.00000000E+00
  0.00000000E+00  0.00000000E+00  0.00000000E+00
  0.00000000E+00  0.00000000E+00  0.00000000E+00
  0.00000000E+00  0.00000000E+00  0.00000000E+00
  0.00000000E+00  0.00000000E+00  0.00000000E+00
  0.00000000E+00  0.00000000E+00  0.00000000E+00
  0.00000000E+00  0.00000000E+00  0.00000000E+00
  0.00000000E+00  0.00000000E+00  0.00000000E+00
  0.00000000E+00  0.00000000E+00  0.00000000E+00
  0.00000000E+00  0.00000000E+00  0.00000000E+00
  0.00000000E+00  0.00000000E+00  0.00000000E+00
  0.00000000E+00  0.00000000E+00  0.00000000E+00
  0.00000000E+00  0.00000000E+00  0.00000000E+00
  0.00000000E+00  0.00000000E+00  0.00000000E+00
  0.00000000E+00  0.00000000E+00  0.00000000E+00
  0.00000000E+00  0.00000000E+00  0.00000000E+00
  0.00000000E+00  0.00000000E+00  0.00000000E+00
  0.00000000E+00  0.00000000E+00  0.00000000E+00
  0.00000000E+00  0.00000000E+00  0.00000000E+00
  0.00000000E+00  0.00000000E+00  0.00000000E+00
  0.00000000E+00  0.00000000E+00  0.00000000E+00
  0.00000000E+00  0.00000000E+00  0.00000000E+00
  0.00000000E+00  0.00000000E+00  0.00000000E+00
  0.00000000E+00  0.00000000E+00  0.00000000E+00
  0.00000000E+00  0.00000000E+00  0.00000000E+00
  0.00000000E+00  0.00000000E+00  0.00000000E+00
  0.00000000E+00  0.00000000E+00  0.00000000E+00
  0.00000000E+00  0.00000000E+00  0.00000000E+00
  0.00000000E+00  0.00000000E+00  0.00000000E+00
  0.00000000E+00  0.00000000E+00  0.00000000E+00
  0.00000000E+00  0.00000000E+00  0.00000000E+00
  0.00000000E+00  0.00000000E+00  0.00000000E+00
  0.00000000E+00  0.00000000E+00  0.00000000E+00
  0.00000000E+00  0.00000000E+00  0.00000000E+00
  0.00000000E+00  0.00000000E+00  0.00000000E+00
  0.00000000E+00  0.00000000E+00  0.00000000E+00
  0.00000000E+00  0.00000000E+00  0.00000000E+00
  0.00000000E+00  0.00000000E+00  0.00000000E+00
  0.00000000E+00  0.00000000E+00  0.00000000E+00
  0.00000000E+00  0.00000000E+00  0.00000000E+00
  0.00000000E+00  0.00000000E+00  0.00000000E+00
  0.00000000E+00  0.00000000E+00  0.00000000E+00
  0.00000000E+00  0.00000000E+00  0.00000000E+00
  0.00000000E+00  0.00000000E+00  0.00000000E+00
  0.00000000E+00  0.00000000E+00  0.00000000E+00
  0.00000000E+00  0.00000000E+00  0.00000000E+00
  0.00000000E+00  0.00000000E+00  0.00000000E+00
  0.00000000E+00  0.00000000E+00  0.00000000E+00
  0.00000000E+00  0.00000000E+00  0.00000000E+00
  0.00000000E+00  0.00000000E+00  0.00000000E+00
  0.00000000E+00  0.00000000E+00  0.00000000E+00
  0.00000000E+00  0.00000000E+00  0.00000000E+00
  0.00000000E+00  0.00000000E+00  0.00000000E+00
  0.00000000E+00  0.00000000E+00  0.00000000E+00
  0.00000000E+00  0.00000000E+00  0.00000000E+00
  0.00000000E+00  0.00000000E+00  0.00000000E+00
  0.00000000E+00  0.00000000E+00  0.00000000E+00
  0.00000000E+00  0.00000000E+00  0.00000000E+00
  0.00000000E+00  0.00000000E+00  0.00000000E+00
  0.00000000E+00  0.00000000E+00  0.00000000E+00
  0.00000000E+00  0.00000000E+00  0.00000000E+00
  0.00000000E+00  0.00000000E+00  0.00000000E+00
  0.00000000E+00  0.00000000E+00  0.00000000E+00
  0.00000000E+00  0.00000000E+00  0.00000000E+00
  0.00000000E+00  0.00000000E+00  0.00000000E+00
  0.00000000E+00  0.00000000E+00  0.00000000E+00
  0.00000000E+00  0.00000000E+00  0.00000000E+00
  0.00000000E+00  0.00000000E+00  0.00000000E+00
  0.00000000E+00  0.00000000E+00  0.00000000E+00
  0.00000000E+00  0.00000000E+00  0.00000000E+00
  0.00000000E+00  0.00000000E+00  0.00000000E+00
  0.00000000E+00  0.00000000E+00  0.00000000E+00
  0.00000000E+00  0.00000000E+00  0.00000000E+00
  0.00000000E+00  0.00000000E+00  0.00000000E+00
  0.00000000E+00  0.00000000E+00  0.00000000E+00
  0.00000000E+00  0.00000000E+00  0.00000000E+00
  0.00000000E+00  0.00000000E+00  0.00000000E+00
  0.00000000E+00  0.00000000E+00  0.00000000E+00
  0.00000000E+00  0.00000000E+00  0.00000000E+00
  0.00000000E+00  0.00000000E+00  0.00000000E+00
  0.00000000E+00  0.00000000E+00  0.00000000E+00
  0.00000000E+00  0.00000000E+00  0.00000000E+00
  0.00000000E+00  0.00000000E+00  0.00000000E+00
  0.00000000E+00  0.00000000E+00  0.00000000E+00
  0.00000000E+00  0.00000000E+00  0.00000000E+00
  0.00000000E+00  0.00000000E+00  0.00000000E+00
  0.00000000E+00  0.00000000E+00  0.00000000E+00
  0.00000000E+00  0.00000000E+00  0.00000000E+00
  0.00000000E+00  0.00000000E+00  0.00000000E+00
  0.00000000E+00  0.00000000E+00  0.00000000E+00
  0.00000000E+00  0.00000000E+00  0.00000000E+00
  0.00000000E+00  0.00000000E+00  0.00000000E+00
  0.00000000E+00  0.00000000E+00  0.00000000E+00
  0.00000000E+00  0.00000000E+00  0.00000000E+00
  0.00000000E+00  0.00000000E+00  0.00000000E+00
  0.00000000E+00  0.00000000E+00  0.00000000E+00
  0.00000000E+00  0.00000000E+00  0.00000000E+00
  0.00000000E+00  0.00000000E+00  0.00000000E+00
  0.00000000E+00  0.00000000E+00  0.00000000E+00
  0.00000000E+00  0.00000000E+00  0.00000000E+00
  0.00000000E+00  0.00000000E+00  0.00000000E+00
  0.00000000E+00  0.00000000E+00  0.00000000E+00
  0.00000000E+00  0.00000000E+00  0.00000000E+00
  0.00000000E+00  0.00000000E+00  0.00000000E+00
  0.00000000E+00  0.00000000E+00  0.00000000E+00
  0.00000000E+00  0.00000000E+00  0.00000000E+00
  0.00000000E+00  0.00000000E+00  0.00000000E+00
  0.00000000E+00  0.00000000E+00  0.00000000E+00
  0.00000000E+00  0.00000000E+00  0.00000000E+00
  0.00000000E+00  0.00000000E+00  0.00000000E+00
  0.00000000E+00  0.00000000E+00  0.00000000E+00
  0.00000000E+00  0.00000000E+00  0.00000000E+00
  0.00000000E+00  0.00000000E+00  0.00000000E+00
  0.00000000E+00  0.00000000E+00  0.00000000E+00
  0.00000000E+00  0.00000000E+00  0.00000000E+00
  0.00000000E+00  0.00000000E+00  0.00000000E+00
