Converted by xsd2pos.py                 
    1.000000000000000     
    11.1038399999999999    0.0000000000000000    0.0000000000000000
     0.0000000000000000   11.2002380000000006    0.0000000000000000
     0.0000000000000000    0.0000000000000000   32.4346430000000012
   Mn   O    La
    32    96    32
Selective dynamics
Direct
  0.0015299684974178  0.9968878349264734  0.4786801516233186   T   T   T
  0.2547548298191846  0.2467983431767062  0.4786757776059712   T   T   T
  0.2500000000000000  0.2500000000000000  0.1119130000000013   F   F   F
  0.0000000000000000  0.0000000000000000  0.1119130000000013   F   F   F
  0.0000000000000000  0.0000000000000000  0.2335179999999966   F   F   F
  0.2500000000000000  0.2500000000000000  0.2335179999999966   F   F   F
  0.2496889898947841  0.2500519139475106  0.3558898091063254   T   T   T
  0.0043510530058618  0.0009196387565980  0.3558042246343531   T   T   T
  0.0015292315265030  0.4968854529152839  0.4786792942242640   T   T   T
  0.2547592218006360  0.7467958882551282  0.4786793753879329   T   T   T
  0.2500000000000000  0.7500000000000000  0.1119130000000013   F   F   F
  0.0000000000000000  0.5000000000000000  0.1119130000000013   F   F   F
  0.0000000000000000  0.5000000000000000  0.2335179999999966   F   F   F
  0.2500000000000000  0.7500000000000000  0.2335179999999966   F   F   F
  0.2496916683305729  0.7500522655680525  0.3558905686836826   T   T   T
  0.0043519750567970  0.5009233011234416  0.3558012532650237   T   T   T
  0.5016933937743843  0.9969088568402190  0.4783483482669320   T   T   T
  0.7545957610173007  0.2469428233120631  0.4783868790647579   T   T   T
  0.7500000000000000  0.2500000000000000  0.1119130000000013   F   F   F
  0.5000000000000000  0.0000000000000000  0.1119130000000013   F   F   F
  0.5000000000000000  0.0000000000000000  0.2335179999999966   F   F   F
  0.7500000000000000  0.2500000000000000  0.2335179999999966   F   F   F
  0.7499257611951154  0.2503410077736936  0.3557167201226272   T   T   T
  0.5042410404968323  0.0010951865975790  0.3556162685537272   T   T   T
  0.5017029791051838  0.4969096517300052  0.4783519632599980   T   T   T
  0.7545952142064406  0.7469335724719748  0.4783867822825746   T   T   T
  0.7500000000000000  0.7500000000000000  0.1119130000000013   F   F   F
  0.5000000000000000  0.5000000000000000  0.1119130000000013   F   F   F
  0.5000000000000000  0.5000000000000000  0.2335179999999966   F   F   F
  0.7500000000000000  0.7500000000000000  0.2335179999999966   F   F   F
  0.7499227558398520  0.7503395233626533  0.3557160215062268   T   T   T
  0.5042376814941070  0.5010933117549911  0.3556201117916625   T   T   T
  0.1422340000000020  0.1070800000000034  0.1216050000000024   F   F   F
  0.3577670000000026  0.3929199999999966  0.1022210000000001   F   F   F
  0.3922329999999974  0.1429189999999991  0.1022210000000001   F   F   F
  0.1077670000000026  0.3570800000000034  0.1216050000000024   F   F   F
  0.1077670000000026  0.3570800000000034  0.2238270000000000   F   F   F
  0.1422340000000020  0.1070800000000034  0.2238270000000000   F   F   F
  0.4630960000000002  0.0077810000000014  0.1727160000000012   F   F   F
  0.0369039999999998  0.4922189999999986  0.0511109999999988   F   F   F
  0.2130960000000002  0.2422189999999986  0.0511109999999988   F   F   F
  0.2869039999999998  0.2577810000000014  0.1727160000000012   F   F   F
  0.1549261641148133  0.1050252646884234  0.3630688350691765   T   T   T
  0.3536511862053001  0.3895538538326319  0.3454516690123254   T   T   T
  0.3899625753360450  0.1473109839952611  0.3451298396726734   T   T   T
  0.1072774932887532  0.3467856796949887  0.3630034242548170   T   T   T
  0.1289055885390715  0.3729928172536858  0.4702387453420234   T   T   T
  0.3922329999999974  0.1429189999999991  0.2432099999999977   F   F   F
  0.3577670000000026  0.3929199999999966  0.2432099999999977   F   F   F
  0.1273762965377407  0.1230302199791662  0.4702385869489145   T   T   T
  0.4778365813312918  0.0043922044091079  0.4126598597175056   T   T   T
  0.0353039999999964  0.4927890000000019  0.2948599999999999   F   F   F
  0.2146789999999967  0.2427849999999978  0.2948609999999974   F   F   F
  0.2801288552400674  0.2547825037162570  0.4131239843098765   T   T   T
  0.1422340000000020  0.6070810000000009  0.1216050000000024   F   F   F
  0.3577670000000026  0.8929189999999991  0.1022210000000001   F   F   F
  0.3922329999999974  0.6429189999999991  0.1022210000000001   F   F   F
  0.1077670000000026  0.8570810000000009  0.1216050000000024   F   F   F
  0.1077670000000026  0.8570810000000009  0.2238270000000000   F   F   F
  0.1422340000000020  0.6070810000000009  0.2238270000000000   F   F   F
  0.4630960000000002  0.5077810000000014  0.1727160000000012   F   F   F
  0.0369039999999998  0.9922189999999986  0.0511109999999988   F   F   F
  0.2130960000000002  0.7422189999999986  0.0511109999999988   F   F   F
  0.2869039999999998  0.7577810000000014  0.1727160000000012   F   F   F
  0.1549291035877361  0.6050290016052554  0.3630688601169575   T   T   T
  0.3536537104938608  0.8895520305609711  0.3454530272772328   T   T   T
  0.3899660755437516  0.6473149406436567  0.3451302852703989   T   T   T
  0.1072789181832125  0.8467960076722674  0.3630041721756448   T   T   T
  0.1289269090630495  0.8729818313507910  0.4702379481275472   T   T   T
  0.3922329999999974  0.6429189999999991  0.2432099999999977   F   F   F
  0.3577670000000026  0.8929189999999991  0.2432099999999977   F   F   F
  0.1273717640700478  0.6230202194579283  0.4702447166836538   T   T   T
  0.4778421404539931  0.5043881766838585  0.4126551526237632   T   T   T
  0.0353039999999964  0.9927899999999994  0.2948639999999969   F   F   F
  0.2146779999999993  0.7427940000000035  0.2948629999999994   F   F   F
  0.2801225118292672  0.7547880229898889  0.4131249569237635   T   T   T
  0.6422329999999974  0.1070800000000034  0.1216050000000024   F   F   F
  0.8577670000000026  0.3929199999999966  0.1022210000000001   F   F   F
  0.8922329999999974  0.1429189999999991  0.1022210000000001   F   F   F
  0.6077670000000026  0.3570800000000034  0.1216050000000024   F   F   F
  0.6077670000000026  0.3570800000000034  0.2238270000000000   F   F   F
  0.6422329999999974  0.1070800000000034  0.2238270000000000   F   F   F
  0.9630960000000002  0.0077810000000014  0.1727160000000012   F   F   F
  0.5369039999999998  0.4922189999999986  0.0511109999999988   F   F   F
  0.7130960000000002  0.2422189999999986  0.0511109999999988   F   F   F
  0.7869039999999998  0.2577810000000014  0.1727160000000012   F   F   F
  0.6547823522979618  0.1058082131007988  0.3627973711401824   T   T   T
  0.8541246739841115  0.3899925497121691  0.3453958588645099   T   T   T
  0.8899856913323335  0.1476178172590520  0.3451593391090171   T   T   T
  0.6075875910380224  0.3475954557401409  0.3627224669149909   T   T   T
  0.6289804067347694  0.3732343160756493  0.4697640709808503   T   T   T
  0.8922329999999974  0.1429189999999991  0.2432099999999977   F   F   F
  0.8577670000000026  0.3929199999999966  0.2432099999999977   F   F   F
  0.6272913037092972  0.1233056511988689  0.4697753394411181   T   T   T
  0.9772680408946164  0.0043247547888967  0.4130053531395727   T   T   T
  0.5353220000000007  0.4927869999999999  0.2948620000000020   F   F   F
  0.7146970000000010  0.2427849999999978  0.2948620000000020   F   F   F
  0.7796859829381382  0.2550658679636667  0.4127761903379263   T   T   T
  0.6422329999999974  0.6070810000000009  0.1216050000000024   F   F   F
  0.8577670000000026  0.8929189999999991  0.1022210000000001   F   F   F
  0.8922329999999974  0.6429189999999991  0.1022210000000001   F   F   F
  0.6077670000000026  0.8570810000000009  0.1216050000000024   F   F   F
  0.6077670000000026  0.8570810000000009  0.2238270000000000   F   F   F
  0.6422329999999974  0.6070810000000009  0.2238270000000000   F   F   F
  0.9630960000000002  0.5077810000000014  0.1727160000000012   F   F   F
  0.5369039999999998  0.9922189999999986  0.0511109999999988   F   F   F
  0.7130960000000002  0.7422189999999986  0.0511109999999988   F   F   F
  0.7869039999999998  0.7577810000000014  0.1727160000000012   F   F   F
  0.6547856885127215  0.6058041072300996  0.3627998238728874   T   T   T
  0.8541177986826285  0.8899916722965016  0.3453981139363387   T   T   T
  0.8899951305363560  0.6476350019679674  0.3451641428768520   T   T   T
  0.6075863093004292  0.8476056927960912  0.3627251926340108   T   T   T
  0.6289752077447884  0.8732288695982461  0.4697585658743913   T   T   T
  0.8922329999999974  0.6429189999999991  0.2432099999999977   F   F   F
  0.8577670000000026  0.8929189999999991  0.2432099999999977   F   F   F
  0.6272979896569327  0.6233020571276610  0.4697792192828144   T   T   T
  0.9772716424217355  0.5043210987897104  0.4130047918672226   T   T   T
  0.5353199999999987  0.9927869999999999  0.2948650000000015   F   F   F
  0.7146960000000036  0.7427920000000015  0.2948639999999969   F   F   F
  0.7796892886088368  0.7550650637004579  0.4127786643539612   T   T   T
  0.8733098817890463  0.1205290691127270  0.4765730114782587   T   T   T
  0.8792697578870327  0.8687054676233109  0.4767285096813406   T   T   T
  0.3767979882149931  0.1184098233683271  0.4766303223476583   T   T   T
  0.3829620387690879  0.3704816337853996  0.4765863257081051   T   T   T
  0.8733179424191569  0.6205074852853969  0.4765725091035101   T   T   T
  0.8792773642591269  0.3687318591517703  0.4767316887422708   T   T   T
  0.3767836091660246  0.6184142992906840  0.4766334834376943   T   T   T
  0.3829743458279607  0.8704643836289823  0.4765912192503864   T   T   T
  0.2537730000000025  0.0183269999999993  0.0511109999999988   F   F   F
  0.2462269999999975  0.4816730000000007  0.1727160000000012   F   F   F
  0.0037730000000025  0.2316730000000007  0.1727160000000012   F   F   F
  0.4962269999999975  0.2683269999999993  0.0511109999999988   F   F   F
  0.2530560000000008  0.0182980000000015  0.2973989999999986   F   F   F
  0.2556413078651497  0.4952737499867343  0.4235924447099340   T   T   T
  0.0012216943520816  0.2454751987282919  0.4236679822933748   T   T   T
  0.4969409999999996  0.2682939999999974  0.2974000000000032   F   F   F
  0.2537730000000025  0.5183269999999993  0.0511109999999988   F   F   F
  0.2462269999999975  0.9816730000000007  0.1727160000000012   F   F   F
  0.0037730000000025  0.7316730000000007  0.1727160000000012   F   F   F
  0.4962269999999975  0.7683269999999993  0.0511109999999988   F   F   F
  0.2530569999999983  0.5183010000000010  0.2973959999999991   F   F   F
  0.2556394111867478  0.9952677454999541  0.4235878804088191   T   T   T
  0.0012236046412125  0.7454643667588264  0.4236703779747078   T   T   T
  0.4969409999999996  0.7683019999999985  0.2974000000000032   F   F   F
  0.7537730000000025  0.0183269999999993  0.0511109999999988   F   F   F
  0.7462269999999975  0.4816730000000007  0.1727160000000012   F   F   F
  0.5037730000000025  0.2316730000000007  0.1727160000000012   F   F   F
  0.9962269999999975  0.2683269999999993  0.0511109999999988   F   F   F
  0.7530720000000031  0.0183019999999985  0.2974030000000027   F   F   F
  0.7551078626652318  0.4954498475248093  0.4233483036968936   T   T   T
  0.5017322647136907  0.2455956804245742  0.4233740528497745   T   T   T
  0.9969310000000036  0.2682969999999969  0.2973980000000012   F   F   F
  0.7537730000000025  0.5183269999999993  0.0511109999999988   F   F   F
  0.7462269999999975  0.9816730000000007  0.1727160000000012   F   F   F
  0.5037730000000025  0.7316730000000007  0.1727160000000012   F   F   F
  0.9962269999999975  0.7683269999999993  0.0511109999999988   F   F   F
  0.7530739999999980  0.5183040000000005  0.2973989999999986   F   F   F
  0.7551138191633151  0.9954478122194488  0.4233483593081664   T   T   T
  0.5017286889151787  0.7455700790616537  0.4233734867935317   T   T   T
  0.9969310000000036  0.7683049999999980  0.2973989999999986   F   F   F
 
  0.00000000E+00  0.00000000E+00  0.00000000E+00
  0.00000000E+00  0.00000000E+00  0.00000000E+00
  0.00000000E+00  0.00000000E+00  0.00000000E+00
  0.00000000E+00  0.00000000E+00  0.00000000E+00
  0.00000000E+00  0.00000000E+00  0.00000000E+00
  0.00000000E+00  0.00000000E+00  0.00000000E+00
  0.00000000E+00  0.00000000E+00  0.00000000E+00
  0.00000000E+00  0.00000000E+00  0.00000000E+00
  0.00000000E+00  0.00000000E+00  0.00000000E+00
  0.00000000E+00  0.00000000E+00  0.00000000E+00
  0.00000000E+00  0.00000000E+00  0.00000000E+00
  0.00000000E+00  0.00000000E+00  0.00000000E+00
  0.00000000E+00  0.00000000E+00  0.00000000E+00
  0.00000000E+00  0.00000000E+00  0.00000000E+00
  0.00000000E+00  0.00000000E+00  0.00000000E+00
  0.00000000E+00  0.00000000E+00  0.00000000E+00
  0.00000000E+00  0.00000000E+00  0.00000000E+00
  0.00000000E+00  0.00000000E+00  0.00000000E+00
  0.00000000E+00  0.00000000E+00  0.00000000E+00
  0.00000000E+00  0.00000000E+00  0.00000000E+00
  0.00000000E+00  0.00000000E+00  0.00000000E+00
  0.00000000E+00  0.00000000E+00  0.00000000E+00
  0.00000000E+00  0.00000000E+00  0.00000000E+00
  0.00000000E+00  0.00000000E+00  0.00000000E+00
  0.00000000E+00  0.00000000E+00  0.00000000E+00
  0.00000000E+00  0.00000000E+00  0.00000000E+00
  0.00000000E+00  0.00000000E+00  0.00000000E+00
  0.00000000E+00  0.00000000E+00  0.00000000E+00
  0.00000000E+00  0.00000000E+00  0.00000000E+00
  0.00000000E+00  0.00000000E+00  0.00000000E+00
  0.00000000E+00  0.00000000E+00  0.00000000E+00
  0.00000000E+00  0.00000000E+00  0.00000000E+00
  0.00000000E+00  0.00000000E+00  0.00000000E+00
  0.00000000E+00  0.00000000E+00  0.00000000E+00
  0.00000000E+00  0.00000000E+00  0.00000000E+00
  0.00000000E+00  0.00000000E+00  0.00000000E+00
  0.00000000E+00  0.00000000E+00  0.00000000E+00
  0.00000000E+00  0.00000000E+00  0.00000000E+00
  0.00000000E+00  0.00000000E+00  0.00000000E+00
  0.00000000E+00  0.00000000E+00  0.00000000E+00
  0.00000000E+00  0.00000000E+00  0.00000000E+00
  0.00000000E+00  0.00000000E+00  0.00000000E+00
  0.00000000E+00  0.00000000E+00  0.00000000E+00
  0.00000000E+00  0.00000000E+00  0.00000000E+00
  0.00000000E+00  0.00000000E+00  0.00000000E+00
  0.00000000E+00  0.00000000E+00  0.00000000E+00
  0.00000000E+00  0.00000000E+00  0.00000000E+00
  0.00000000E+00  0.00000000E+00  0.00000000E+00
  0.00000000E+00  0.00000000E+00  0.00000000E+00
  0.00000000E+00  0.00000000E+00  0.00000000E+00
  0.00000000E+00  0.00000000E+00  0.00000000E+00
  0.00000000E+00  0.00000000E+00  0.00000000E+00
  0.00000000E+00  0.00000000E+00  0.00000000E+00
  0.00000000E+00  0.00000000E+00  0.00000000E+00
  0.00000000E+00  0.00000000E+00  0.00000000E+00
  0.00000000E+00  0.00000000E+00  0.00000000E+00
  0.00000000E+00  0.00000000E+00  0.00000000E+00
  0.00000000E+00  0.00000000E+00  0.00000000E+00
  0.00000000E+00  0.00000000E+00  0.00000000E+00
  0.00000000E+00  0.00000000E+00  0.00000000E+00
  0.00000000E+00  0.00000000E+00  0.00000000E+00
  0.00000000E+00  0.00000000E+00  0.00000000E+00
  0.00000000E+00  0.00000000E+00  0.00000000E+00
  0.00000000E+00  0.00000000E+00  0.00000000E+00
  0.00000000E+00  0.00000000E+00  0.00000000E+00
  0.00000000E+00  0.00000000E+00  0.00000000E+00
  0.00000000E+00  0.00000000E+00  0.00000000E+00
  0.00000000E+00  0.00000000E+00  0.00000000E+00
  0.00000000E+00  0.00000000E+00  0.00000000E+00
  0.00000000E+00  0.00000000E+00  0.00000000E+00
  0.00000000E+00  0.00000000E+00  0.00000000E+00
  0.00000000E+00  0.00000000E+00  0.00000000E+00
  0.00000000E+00  0.00000000E+00  0.00000000E+00
  0.00000000E+00  0.00000000E+00  0.00000000E+00
  0.00000000E+00  0.00000000E+00  0.00000000E+00
  0.00000000E+00  0.00000000E+00  0.00000000E+00
  0.00000000E+00  0.00000000E+00  0.00000000E+00
  0.00000000E+00  0.00000000E+00  0.00000000E+00
  0.00000000E+00  0.00000000E+00  0.00000000E+00
  0.00000000E+00  0.00000000E+00  0.00000000E+00
  0.00000000E+00  0.00000000E+00  0.00000000E+00
  0.00000000E+00  0.00000000E+00  0.00000000E+00
  0.00000000E+00  0.00000000E+00  0.00000000E+00
  0.00000000E+00  0.00000000E+00  0.00000000E+00
  0.00000000E+00  0.00000000E+00  0.00000000E+00
  0.00000000E+00  0.00000000E+00  0.00000000E+00
  0.00000000E+00  0.00000000E+00  0.00000000E+00
  0.00000000E+00  0.00000000E+00  0.00000000E+00
  0.00000000E+00  0.00000000E+00  0.00000000E+00
  0.00000000E+00  0.00000000E+00  0.00000000E+00
  0.00000000E+00  0.00000000E+00  0.00000000E+00
  0.00000000E+00  0.00000000E+00  0.00000000E+00
  0.00000000E+00  0.00000000E+00  0.00000000E+00
  0.00000000E+00  0.00000000E+00  0.00000000E+00
  0.00000000E+00  0.00000000E+00  0.00000000E+00
  0.00000000E+00  0.00000000E+00  0.00000000E+00
  0.00000000E+00  0.00000000E+00  0.00000000E+00
  0.00000000E+00  0.00000000E+00  0.00000000E+00
  0.00000000E+00  0.00000000E+00  0.00000000E+00
  0.00000000E+00  0.00000000E+00  0.00000000E+00
  0.00000000E+00  0.00000000E+00  0.00000000E+00
  0.00000000E+00  0.00000000E+00  0.00000000E+00
  0.00000000E+00  0.00000000E+00  0.00000000E+00
  0.00000000E+00  0.00000000E+00  0.00000000E+00
  0.00000000E+00  0.00000000E+00  0.00000000E+00
  0.00000000E+00  0.00000000E+00  0.00000000E+00
  0.00000000E+00  0.00000000E+00  0.00000000E+00
  0.00000000E+00  0.00000000E+00  0.00000000E+00
  0.00000000E+00  0.00000000E+00  0.00000000E+00
  0.00000000E+00  0.00000000E+00  0.00000000E+00
  0.00000000E+00  0.00000000E+00  0.00000000E+00
  0.00000000E+00  0.00000000E+00  0.00000000E+00
  0.00000000E+00  0.00000000E+00  0.00000000E+00
  0.00000000E+00  0.00000000E+00  0.00000000E+00
  0.00000000E+00  0.00000000E+00  0.00000000E+00
  0.00000000E+00  0.00000000E+00  0.00000000E+00
  0.00000000E+00  0.00000000E+00  0.00000000E+00
  0.00000000E+00  0.00000000E+00  0.00000000E+00
  0.00000000E+00  0.00000000E+00  0.00000000E+00
  0.00000000E+00  0.00000000E+00  0.00000000E+00
  0.00000000E+00  0.00000000E+00  0.00000000E+00
  0.00000000E+00  0.00000000E+00  0.00000000E+00
  0.00000000E+00  0.00000000E+00  0.00000000E+00
  0.00000000E+00  0.00000000E+00  0.00000000E+00
  0.00000000E+00  0.00000000E+00  0.00000000E+00
  0.00000000E+00  0.00000000E+00  0.00000000E+00
  0.00000000E+00  0.00000000E+00  0.00000000E+00
  0.00000000E+00  0.00000000E+00  0.00000000E+00
  0.00000000E+00  0.00000000E+00  0.00000000E+00
  0.00000000E+00  0.00000000E+00  0.00000000E+00
  0.00000000E+00  0.00000000E+00  0.00000000E+00
  0.00000000E+00  0.00000000E+00  0.00000000E+00
  0.00000000E+00  0.00000000E+00  0.00000000E+00
  0.00000000E+00  0.00000000E+00  0.00000000E+00
  0.00000000E+00  0.00000000E+00  0.00000000E+00
  0.00000000E+00  0.00000000E+00  0.00000000E+00
  0.00000000E+00  0.00000000E+00  0.00000000E+00
  0.00000000E+00  0.00000000E+00  0.00000000E+00
  0.00000000E+00  0.00000000E+00  0.00000000E+00
  0.00000000E+00  0.00000000E+00  0.00000000E+00
  0.00000000E+00  0.00000000E+00  0.00000000E+00
  0.00000000E+00  0.00000000E+00  0.00000000E+00
  0.00000000E+00  0.00000000E+00  0.00000000E+00
  0.00000000E+00  0.00000000E+00  0.00000000E+00
  0.00000000E+00  0.00000000E+00  0.00000000E+00
  0.00000000E+00  0.00000000E+00  0.00000000E+00
  0.00000000E+00  0.00000000E+00  0.00000000E+00
  0.00000000E+00  0.00000000E+00  0.00000000E+00
  0.00000000E+00  0.00000000E+00  0.00000000E+00
  0.00000000E+00  0.00000000E+00  0.00000000E+00
  0.00000000E+00  0.00000000E+00  0.00000000E+00
  0.00000000E+00  0.00000000E+00  0.00000000E+00
  0.00000000E+00  0.00000000E+00  0.00000000E+00
  0.00000000E+00  0.00000000E+00  0.00000000E+00
  0.00000000E+00  0.00000000E+00  0.00000000E+00
  0.00000000E+00  0.00000000E+00  0.00000000E+00
  0.00000000E+00  0.00000000E+00  0.00000000E+00
  0.00000000E+00  0.00000000E+00  0.00000000E+00
  0.00000000E+00  0.00000000E+00  0.00000000E+00
  0.00000000E+00  0.00000000E+00  0.00000000E+00
