Collinear Magnetic Calculation
ISPIN      =  2        (Spin polarised DFT)
MAGMOM     = 2*2.0          (Set this parameters manually)
# LASPH      = .TRUE.    (Non-spherical elements, d/f convergence)
# GGA_COMPAT = .FALSE.   (Apply spherical cutoff on gradient field)
# VOSKOWN    =  1        (Enhances the magnetic moments and the magnetic energies)
# LMAXMIX    =  6        (For d elements increase LMAXMIX to 4, f: LMAXMIX = 6)
# AMIX       =  0.2    (Mixing parameter to control SCF convergence)
# BMIX       =  0.0001 (Mixing parameter to control SCF convergence)
# AMIX_MAG   =  0.4    (Mixing parameter to control SCF convergence)
# BMIX_MAG   =  0.0001 (Mixing parameter to control SCF convergence)
LORBIT = 11

Dipole Correction
# IDIPOL = 3
# LDIPOL = .True.
 
DFT+U Calculation
# LDAU   = .TRUE.        (Activate DFT+U)
# LDATYPE=  2            (Dudarev, only U-J matters)
# LDAUL  =  2 -1 -1        (Orbitals for each species)
# LDAUU  =  4.5  0 0        (U for each species)
# LDAUJ  =  0  0 0        (J for each species)
# LMAXMIX=  4            (Mixing cut-off, 4-d, 6-f)
 
Global Parameters
LREAL  = .FALSE.       (Projection operators: automatic)
# LREAL  = Auto
ENCUT  =  520        (Cut-off energy for plane wave basis set, in eV)
PREC   =  Accurate   (Precision level: Normal or Accurate, set Accurate when perform structure lattice relaxation calculation)
LWAVE  = .TRUE.        (Write WAVECAR or not)
LCHARG = .TRUE.        (Write CHGCAR or not)
ADDGRID= .TRUE.        (Increase grid, helps GGA convergence)
ALGO = All
 
Electronic Relaxation
ISMEAR =  -1            (Gaussian smearing, metals:1)
SIGMA  =  0.05         (Smearing value in eV, metals:0.2)
NELM   =  150           (Max electronic SCF steps)
NELMIN =  6            (Min electronic SCF steps)
EDIFF  =  1E-06        (SCF energy convergence, in eV)
# GGA  =  PS           (PBEsol exchange-correlation)
 
Ionic Relaxation
NSW    =  100          (Max ionic steps)
IBRION =  2            (Algorithm: 0-MD, 1-Quasi-New, 2-CG)
ISIF   =  2            (Stress/relaxation: 2-Ions, 3-Shape/Ions/V, 4-Shape/Ions)
EDIFFG = -1E-02        (Ionic convergence, eV/AA)
# ISYM =  2            (Symmetry: 0=none, 2=GGA, 3=hybrids)
 
