cif2pos.py
1.0
    11.10380000     0.00000000     0.00000000
     0.00000000    11.20020000     0.00000000
     0.00000000     0.00000000    32.43460000
  O
  2
Direct
     0.51898000     0.46775000     0.48544000
     0.51898000     0.46775000     0.44486000
