units        real
atom_style   full
pair_style   hybrid/overlay lj/cut/coul/long 12.0 12.0 lj/cut 12.0
pair_modify  tail yes mix arithmetic
bond_style   hybrid harmonic harmonic/restrain
angle_style  harmonic
dihedral_style opls
improper_style cvff
kspace_style pppm 0.00001
