cif2pos.py                              
    1.000000000000000     
    11.1037999999999997    0.0000000000000000    0.0000000000000000
     0.0000000000000000   11.2002000000000006    0.0000000000000000
     0.0000000000000000    0.0000000000000000   32.4346000000000032
   H    O 
     2     1
Direct
  0.4823940711493114  0.6335418347978210  0.4991058875313816
  0.5635323455687499  0.6236104466989455  0.5373206612727819
  0.4797435832819366  0.6311577185032304  0.5290434511958343
 
  0.00000000E+00  0.00000000E+00  0.00000000E+00
  0.00000000E+00  0.00000000E+00  0.00000000E+00
  0.00000000E+00  0.00000000E+00  0.00000000E+00
