cif2pos.py                              
    1.000000000000000     
    11.1037999999999997    0.0000000000000000    0.0000000000000000
     0.0000000000000000   11.2002000000000006    0.0000000000000000
     0.0000000000000000    0.0000000000000000   32.4346000000000032
   H    O 
     2     1
Direct
  0.4823940711493080  0.6335418347978177  0.4991058875313783
  0.5635323455687526  0.6236104466989474  0.5373206612727799
  0.4797435832819374  0.6311577185032320  0.5290434511958324
 
  0.00000000E+00  0.00000000E+00  0.00000000E+00
  0.00000000E+00  0.00000000E+00  0.00000000E+00
  0.00000000E+00  0.00000000E+00  0.00000000E+00
