O  B  C  Mg                             
    1.000000000000000     
    27.1793000000000013    0.0000000000000000    0.0000000000000000
    -0.0669033501676605   27.1478175614861605    0.0000000000000000
     0.0000000000000000    0.0148214401429777   27.1310959515997467
   O    B    C    Mg
   240    48   300    96
Direct
  0.8491298040009712  0.7166925853348177  0.3293431986488881
  0.3429215705720904  0.2133704544323232  0.8327445389444538
  0.6898336891471741  0.2467002707225708  0.7582846980701412
  0.1723583040841246  0.7739317556530807  0.2991423239205569
  0.2081944588525412  0.2770850968706833  0.2371537975028646
  0.6673484660717032  0.7300414227512166  0.6799510744801289
  0.3180009694449940  0.7492410776899842  0.6991230505863968
  0.8238336015563484  0.2382153101597411  0.1954406391402433
  0.2945444086479746  0.8153861274203946  0.7523215266288209
  0.7952222392925220  0.3023620001551654  0.2486630561853592
  0.8275365413394846  0.6474774068222044  0.2795702959023341
  0.2974098195909341  0.1910607996169792  0.7605020784608226
  0.2380335332751116  0.2106858515665063  0.2867107883619530
  0.6943807590756670  0.6623509085473164  0.7276400327902861
  0.6934273116643982  0.3316292621492832  0.7329530363772594
  0.2310267102120211  0.7887776273538737  0.2343835009506401
  0.7473845409736631  0.3008311849289095  0.7951004255813775
  0.2511035877874388  0.8056568657590352  0.3185079838591334
  0.2437427219914092  0.7934322500509743  0.6842373892603307
  0.7672571922442298  0.2985628004044357  0.1662451182310322
  0.2679380372367885  0.2217611264313291  0.2047386882936117
  0.7532014498373023  0.7143199303631169  0.6866149915031775
  0.7734715886381573  0.6746504914751968  0.3430502967635675
  0.2567995982179205  0.1964710194835795  0.8378537275766248
  0.9685791787938418  0.0875700398770498  0.5738997151090890
  0.5011740467272331  0.5746300639641735  0.0465586830752885
  0.5234310716181599  0.9360276237212541  0.0488494955655000
  0.0422152159900406  0.3899260582155992  0.5824091265448018
  0.4863358807660367  0.4284778971593486  0.4507662596402845
  0.9764685839401763  0.9419512731621021  0.9543281832198869
  0.9877568000512682  0.5702477041556376  0.9570142161758866
  0.5284667970891322  0.0848319974164927  0.4279579271087202
  0.0531302364711168  0.5420600345534180  0.0083040397097287
  0.5408811615570484  0.0272101599089478  0.4939227538353049
  0.9183666089497617  0.0534001531468979  0.5108419465989847
  0.4297986298072616  0.5561664967422177 -0.0013226636086543
  0.4229735148160446  0.4591532096872010  0.5030146979153716
  0.8922103805044295  0.9270912729900549  0.9710247469184159
  0.6047003554175637  0.9421378419097601  0.0174323596857851
  0.1071083898109703  0.4197850822269618  0.5313813275631843
  0.5854348006271590  0.9773340826646156  0.0959219103435419
  0.0900540287221823  0.4594335061647481  0.6081716091645125
  0.0171765859753990  0.4876236481240451  0.9493689461388789
  0.5528740744578924  0.0026591824161336  0.4104896606376551
  0.4373463815211458  0.4967324684899280  0.4245119554974891
  0.9145555688521875  0.9728471338544656  0.8997491962107818
  0.9497223963793201  0.0009918345991403  0.5736562105240646
  0.4593176286872756  0.4980266367293572  0.0573965716860998
  0.9145013684223613  0.6756697649308789  0.1207476049274059
  0.9761633155561673  0.8076655742063099  0.2227938284751845
  0.8995195834593676  0.7886571887361289  0.2768253886314784
  0.8852177465626144  0.6346051952399946  0.1993201598914211
  0.3854721848888526  0.1299754476816695  0.7227162167687428
  0.3812495616736051  0.3001112140444833  0.7536794552002957
  0.4461507675673776  0.3142407343880939  0.6840029938120127
  0.4236185083933077  0.1463417133596004  0.6362319583463248
  0.5249567918653889  0.1856902522800937  0.7050628724859231
  0.5359792971270351  0.3426890492139940  0.6307695006729325
  0.6332058680898195  0.3310007936320902  0.6320723453257771
  0.5897729060642587  0.2251013575143188  0.7647895096046851
  0.1244524356564926  0.6855300668924913  0.2360376895083083
  0.1404929122505900  0.8531915982799638  0.1998062039282053
  0.0714778262647963  0.8488248967508486  0.1337431989275386
  0.0320460631699356  0.6947650490566009  0.2113606155138971
  0.0331402681284078  0.2968441924120258  0.2823611738299324
  0.0762012753994410  0.1577381965510317  0.3728714479899276
  0.1672214312675611  0.1746226222279382  0.3509245996965082
  0.1248584226204400  0.3243920590121836  0.2746333495952378
  0.5941914277480822  0.6773450998383151  0.8860060716712228
  0.5356892035926295  0.8077956526771641  0.7804375713390175
  0.5689650026864996  0.7594537493820414  0.7048050001281561
  0.6517004366459016  0.6552281675194367  0.8155472527596980
  0.3854379403230489  0.6892248798707064  0.7633257693786804
  0.3805279511486256  0.8614550485497060  0.7839391452716425
  0.4331921277259090  0.8504200750882656  0.8620672459481701
  0.4766204632602972  0.6928809537340732  0.7952311598926041
  0.8934554033417478  0.1781489411567257  0.2591911944271736
  0.8730540531978020  0.3481605008462258  0.2934506775610546
  0.9239323906599631  0.3348613823776225  0.3732992717284557
  0.9839995329262614  0.1888726284494273  0.2955048253551701
  0.2162131364914318  0.9769117598695134  0.8088597309882081
  0.1171968034699842  0.9205750452148229  0.6698708995502070
  0.1980210201331508  0.8768268585770539  0.6487798116248877
  0.2439737087417229  0.8847264543817502  0.8159033852436859
  0.7077285197137797  0.4573424755272267  0.3149009862758996
  0.6293766366670576  0.4252823655467785  0.1600294440359842
  0.7091174641671374  0.3793638907261072  0.1382958632210140
  0.7438172852216708  0.3693153091343625  0.3082640968761873
  0.7041222111275162  0.6112232271268262  0.3688815215124465
  0.7692212313164807  0.5944702299384766  0.2091602775203103
  0.7042011197469561  0.5275714466017226  0.1885856682170003
  0.6255559728704270  0.5711406076959967  0.3390923130308377
  0.2142081555881475  0.0300767886411040  0.7020608556714710
  0.1271302112408449  0.0792420941910829  0.8461674297707670
  0.1572136964643469  0.1682160131092851  0.8302127759558766
  0.2560563673215507  0.1157144260703573  0.6998971102117381
  0.2809606960214717  0.0222987823424835  0.2966203608681033
  0.3654962280201967  0.0768516788187321  0.1563025049722036
  0.3492642841801771  0.1667938689239380  0.1826394792576140
  0.2600120722124974  0.1124062873356785  0.3204327350351646
  0.7939947496207976  0.6297959865064096  0.6370059740632533
  0.7814783319921892  0.6301958683413380  0.8133863697067918
  0.8153719681693445  0.5427368007470066  0.8142395099510187
  0.8728545866874845  0.5733175627949683  0.6450682906517378
  0.8684274852058483  0.4324445968531186  0.8325656738722101
  0.8005059627914702  0.4812775043172055  0.6770679357827997
  0.7640372068981757  0.3919446336631189  0.6742894975261201
  0.7841383354152346  0.3895259622316879  0.8476311009341955
  0.2871258236035207  0.9711073018781133  0.1913758287220791
  0.3848009574221236  0.9225812450659939  0.3288885627359620
  0.3541096883121067  0.8330647410873748  0.3145786559420448
  0.2547600727641434  0.8814439069812859  0.1829616956874057
  0.7915281906720358  0.2258913068753659  0.9598127534796894
  0.6647251153372885  0.1200391175883288  0.8986162379982998
  0.6847824991373259  0.1524443902483640  0.8101921258533056
  0.7821829143758285  0.2770089351306210  0.8812910856119917
  0.1271980087131823  0.7168276647637307  0.3718700856886295
  0.2799734648336887  0.7874058821695959  0.4143548010566341
  0.3131656471817073  0.7039875331849806  0.4482750007473991
  0.1480453222594216  0.6394060566886649  0.4243812619619185
  0.3441551343190086  0.6847757241610168  0.6274853070435078
  0.1855603255930214  0.7533580018334275  0.6116047770582734
  0.1791703332239323  0.7182499932656283  0.5226535312715630
  0.3343579401679890  0.6397652675498839  0.5448188272847908
  0.8402012961616085  0.1624880863917322  0.1230916683337219
  0.6975133794605477  0.2647528815072573  0.1066805711300575
  0.6831009423442357  0.2322658660664820  0.0160954657203243
  0.8261440122123359  0.1282470844252227  0.0314591775550553
  0.3022421136818918  0.2875323249213199  0.0330574732815613
  0.1561562756709219  0.3718800212020957  0.0817757866018739
  0.1522663862897647  0.3043913413569178  0.1483861252330294
  0.3196398659736365  0.2698462895565396  0.1253737757096508
  0.6579461171322181  0.8786960941778297  0.5688311369057564
  0.8184056958407416  0.8076191397335473  0.5332226541967194
  0.8148484439760014  0.7799210133583387  0.6230890943184882
  0.6386055069199038  0.7968442089969133  0.6157016881850988
  0.8700884495526112  0.7869125211065164  0.3981909123357094
  0.7020036301985417  0.7309054332115291  0.3957398538825531
  0.6902440606259883  0.7885838395473381  0.4726784527989715
  0.8379613845280701  0.8729912576322983  0.4228613787926049
  0.3181781353220158  0.3860439742599646  0.9123018429323556
  0.1882674547587978  0.2869746465791886  0.9791369645855984
  0.2303892264230670  0.2090156174291259  0.9424075470450384
  0.3466298140603278  0.3106920658286721  0.8648998033995030
  0.0245364503304136  0.1693972865975541  0.5388341217155862
  0.8805543416183028  0.1313773225372050  0.4520177814108059
  0.9168776032727018  0.1627729011893033  0.3705071352667203
  0.0589011194881760  0.2172051570849427  0.4634603044333790
  0.4183163986883150  0.6811325394377590  0.8724020002422846
  0.5589928219953267  0.7395030516682695  0.9614563454387423
  0.5604642799228331  0.6487589681497011 -0.0033394831861328
  0.3936154386103684  0.6348249176225659  0.9499407661603914
  0.4486117021027352  0.7981854810347015  0.9517837285589302
  0.5988851374560350  0.8321661120450513  0.8636227497696395
  0.6241793425798720  0.8796771657076791  0.9419398157972487
  0.4573232084951472  0.8868571538972377  0.9878891093243588
  0.9656040130421228  0.3499917792385829  0.5240091998042007
  0.1204513854967177  0.3614012501562495  0.4465612275779649
  0.0741912429881032  0.3378680106824154  0.3675123210289194
  0.9403533524189981  0.2812665296995651  0.4619748447504419
  0.5584212804888703  0.2825924489385538  0.5458529142130808
  0.3876918234067173  0.2929456717694456  0.5986755862763502
  0.3801971506950287  0.3759078974889365  0.5500609677344696
  0.5530114739988647  0.3703211460777938  0.5140116514728251
  0.0567103374456744  0.7950462191612651  0.0427548908558287
  0.9143274000970593  0.8292980773225617  0.1401556020523898
  0.8812976984288499  0.8782636189687886  0.0655618662325745
  0.0422098057058053  0.8800133787499611  0.0013054220925040
  0.0898402266852303  0.6821063626633294  0.1214990795119617
  0.9400614107972591  0.7344126083426525  0.0445689266797958
  0.9330017027148862  0.6429600066232485  0.0129260246752340
  0.1031588030927366  0.6292625075221492  0.0440708025421817
  0.5823034495407624  0.1751852608772319  0.6152180324708361
  0.4234486036107774  0.2020763113206228  0.5406087271446558
  0.4333184960223126  0.1142865969720792  0.5014266093462719
  0.6017962674608222  0.1247973959601227  0.5361266029644525
  0.0793281979667764  0.4058005507721250  0.9279310964559007
  0.1231630489992989  0.4957329951700565  0.0682146548810511
  0.2128832716479124  0.4662384566665899  0.0600122024578248
  0.1687775904921562  0.3752845333607323  0.9173374132142728
  0.5770133290338347  0.9019265677137920  0.4098730252642405
  0.6191088305835535  0.9898912227121057  0.5522660676457123
  0.7103142503364152  0.9660953831916268  0.5370611939388078
  0.6578834368744972  0.8541012692365650  0.4064180607835514
  0.8907714076351909  0.8978483749471927  0.5737245327754714
  0.8582504553909730  0.0092634440413201  0.4452051278234763
  0.7753557624165015  0.9635976149912511  0.4291740186456181
  0.7940027984747635  0.8984076856332287  0.5875078409428617
  0.3250797351680618  0.3776954418708012  0.0878477343650570
  0.2640506450453496  0.4629378967579204  0.9463606169081118
  0.3528915444433029  0.5001225224877700  0.9360756218443522
  0.3779752546146115  0.4545075331552019  0.1031689431398373
  0.2929208030947213  0.6101813080283397  0.3968322245203163
  0.2702852480605507  0.5574175730435140  0.5631515513329658
  0.3356303455434319  0.4897047766301139  0.5474370420296609
  0.3871085474665225  0.5933277415123267  0.4195040420757690
  0.8110958657022216  0.0388549628255164  0.0754166313382857
  0.8431661847985884  0.1310539933704526  0.9260701884869004
  0.8490629802932617  0.0497306296878636  0.8755132805544807
  0.8130278688254725  0.9558504172051908  0.0213456054096162
  0.6996667850254041  0.9654133401250211  0.9813522620733801
  0.6470281415607296  0.0575314573746169  0.1179477846195762
  0.6621272904374615  0.1383344351403239  0.0693547712312921
  0.7285241192054571  0.0453177038549991  0.9348878918177379
  0.1746902845168372  0.4650885552682351  0.4744433176317848
  0.1385808667026640  0.5510725121949466  0.6200173358666135
  0.1606341593330879  0.6329549123313188  0.5778387355425517
  0.1969755163642168  0.5462875649703542  0.4303787223536228
  0.3773943441577491  0.9196793908539230  0.1596485809058406
  0.4585535960837476  0.0692577247691880  0.2091390749196934
  0.5091650500217200  0.0566020785447027  0.1284883084014230
  0.4624091308975500  0.8903634974726452  0.1284401201099670
  0.9611840817149923  0.5605484398877361  0.7022032875746042
  0.8766076106046208  0.4110999720616652  0.6577392030441118
  0.9626800788279640  0.3732778822266892  0.6440098297646955
  0.0246913050333488  0.5352020091814443  0.6349358092580238
  0.8964356650639129  0.5819280645689884  0.8902614744524676
  0.0236983193226482  0.4707889853525135  0.8477026160174377
  0.9689853535208808  0.4403380161444412  0.7750323040616837
  0.9027670794065671  0.5992477541736941  0.7937373237202482
  0.5430658887165991  0.9811225112045570  0.3091255278804142
  0.4472904392137491  0.1117164208594383  0.3693776052804719
  0.3698508949586408  0.0740487730518714  0.3309417993145350
  0.4666808480213213  0.9434622199204603  0.2656787729145806
  0.6135342365015862  0.4013531580948961  0.3255499017869375
  0.5477897777324768  0.5583948942799645  0.2799236757241221
  0.5145041729641079  0.5585705427996577  0.3714695733578354
  0.5275190758855907  0.3854975291716463  0.3647296836693772
  0.1238552275193170  0.9228766379481859  0.8363171742655678
  0.0390261576174850  0.0693294030270110  0.7864626606063675
  0.9895660268943967  0.0594323705333806  0.8686087634064790
  0.0414321367601782  0.8948660681787028  0.8760090594423148
  0.1269952568428418  0.0900760501701382  0.6748439803760331
  0.0413950476824645  0.9467233934702091  0.7319252810923866
  0.0050947618836454  0.9456307534844034  0.6411792012496628
  0.0454694512506772  0.1147409868422724  0.6336460329713411
  0.6179691068561444  0.5872952499821212  0.1920914861318594
  0.5378600066151059  0.4339068020086238  0.2176870945996683
  0.5050073877929161  0.4372929307268689  0.1283540068329696
  0.5828591816300630  0.5891878723456613  0.1037105203516374
  0.8565063396273476  0.6887213461709780  0.2875204302529731
  0.3412033062452607  0.2048652933940814  0.7826893798734667
  0.6710686447582199  0.2857406972093487  0.7313779370247868
  0.1844656714885966  0.7759280100741165  0.2500476237550964
  0.2031506377465900  0.2469517401632428  0.2783210457287174
  0.6586353227707866  0.6975841553337742  0.7181216578064814
  0.3281484505028423  0.7799080049563751  0.7381998044448164
  0.8302192839188005  0.2674873384910003  0.2366199301451060
  0.2543702599876344  0.8247465211501084  0.7228960706278332
  0.7656100919734122  0.3209680641927916  0.2116731385297429
  0.7848406474842109  0.6411208068722627  0.3062039615172750
  0.2569362466685752  0.1804068958980294  0.7893598615183155
  0.2686661406679344  0.1957804755388903  0.2487416973944296
  0.7418188135728777  0.6722057688956049  0.7127639529073972
  0.7333157818498890  0.3381646666990913  0.7639277151673720
  0.2602305879721398  0.8124922546471133  0.2687782137183169
  0.7237957014680092  0.2556035191682181  0.7950717669786612
  0.2088503932012380  0.7811667577622912  0.3340740630699176
  0.2759870143091283  0.7562526755668332  0.6712899586196815
  0.7890129985150949  0.2526989881053336  0.1608682730872394
  0.2383791360396258  0.2624929400965453  0.1989185169558495
  0.7148851973914373  0.7399750104564051  0.6648299773718787
  0.8056768868865952  0.7120713808826690  0.3551626309520798
  0.2985177900812688  0.2181889374554039  0.8574791727039940
  0.9446054948046392  0.0934367764044838  0.5294400469452526
  0.4680437945291631  0.5881959030067514  0.0107553276446195
  0.5576722253441811  0.9235194568059304  0.0132684310561127
  0.0680947415569868  0.3879614825335730  0.5388271347916793
  0.4578559093014201  0.4235834287259237  0.4928657267105142
  0.9408945428861413  0.9182378833051927  0.9823386190659825
  0.0203842855414936  0.5784770730425296 -0.0048529988920611
  0.5299558887569005  0.0739915909743527  0.4775744964673100
  0.0528000597522266  0.4965747250472511  0.9845653411796226
  0.5598598812350717  0.9940780500976808  0.4602105161459280
  0.9185501287532568  0.0076600278555113  0.5338957927086738
  0.4228306567938125  0.5131251107418475  0.0253744417502460
  0.4103903102029708  0.4936515062170400  0.4677727761020632
  0.8796684786037435  0.9627685493596082  0.9362441675250667
  0.6174336000716500  0.9729902470523678  0.0557563370974093
  0.1166126654712642  0.4574599727445659  0.5646569255832663
  0.5375325137700194  0.9607955616892138  0.0906331375107882
  0.0475847099364487  0.4314265067217012  0.6118383793924782
  0.9889631561868414  0.5262827226775076  0.9316544090129308
  0.5304230556042324  0.0457844929135587  0.3952275985227992
  0.4762457672580515  0.4650875399990392  0.4169766942843540
  0.9633306234357487  0.9625374612822917  0.9097296927407299
  0.9754325893653257  0.0408770845406507  0.5929199244402529
  0.4978032046652227  0.5294281067980146  0.0699290556415756
  0.0002179367517152  0.7578666823888180  0.1287640400859834
  0.4849768730867743  0.2417690613162386  0.6173554147220249
  0.0016419879909410  0.2474779921109087  0.3769571611040243
  0.5073811983513838  0.7597311163630081  0.8709714213688754
  0.1240266801723752  0.0052334563281802  0.7574375965711019
  0.6246600634199765  0.4929305980547390  0.2523164384239630
  0.3765000879882026  0.0003122042086983  0.2426070878055087
  0.8809517239089442  0.5030295179628442  0.7377250167301893
  0.7294088925220134  0.1425946255944033  0.9837894232038759
  0.2357629224670225  0.6305725552523447  0.4897680510327849
  0.2428126851023343  0.3772320607384941  0.0040496648823561
  0.7416579658377677  0.8758838435457470  0.4908138964580480
  0.9267134357324983  0.7008646718566076  0.1606490050059892
  0.9578355896662085  0.7421660989004886  0.1648536692585976
  0.9517996453610551  0.7691165906926258  0.2099349613461441
  0.9121722611027393  0.7544442518222553  0.2468233340366807
  0.8933975620426196  0.7062526453245355  0.2480108729890239
  0.9020319395810474  0.6785516065208820  0.2051369300519506
  0.3979071021374675  0.1749636606609279  0.7142495327457153
  0.3847235967984042  0.2131994498514807  0.7464342245768198
  0.3982133086740278  0.2606381191753560  0.7326711872675197
  0.4321599795069829  0.2691630336511852  0.6890720781168438
  0.4439019105657544  0.2309724196135254  0.6554347749957262
  0.4236593388763004  0.1842796055764550  0.6652238586467444
  0.5439866746702300  0.2268108555741406  0.6905703926567470
  0.5278856536464256  0.2566322145975135  0.6515180700373991
  0.5527411521741992  0.3022797647712211  0.6487102962422405
  0.6068735076352816  0.3044455839941649  0.6616812715025986
  0.6221864968872121  0.2787052663037211  0.7035378871286785
  0.5866586476882047  0.2453008800803511  0.7224168670842203
  0.1123681053743503  0.7260580475801773  0.2144674195444576
  0.1413665405998289  0.7680500152397646  0.2139077979841465
  0.1213067360428907  0.8103853195829824  0.1928626094978693
  0.0766031955790567  0.8086606345043758  0.1593367232685998
  0.0462785510501314  0.7667245443104581  0.1606775760864029
  0.0604632498167110  0.7284762303245804  0.1941307294608142
  0.0635207420740311  0.2734085466144607  0.3098417838511097
  0.0502795394573854  0.2391734628050231  0.3477925434197834
  0.0844303539701889  0.2009165087472052  0.3540136848894264
  0.1379771992246296  0.2082943681536076  0.3367449481283861
  0.1541756539717340  0.2487652263501538  0.3077849026658782
  0.1174788927105550  0.2832814040314043  0.2969182454723031
  0.5852746100258439  0.7033938425266014  0.8450139903081165
  0.5514765987243478  0.7419603803007421  0.8378696626296717
  0.5549618541033045  0.7658821514038342  0.7904287934555676
  0.5801793828263341  0.7419207189249176  0.7472263707071414
  0.6160385879208757  0.7056992851491365  0.7550275051671617
  0.6191011121215263  0.6873368561939838  0.8035750162926647
  0.4018251870406317  0.7319874913745312  0.7749239732113838
  0.3772191579488196  0.7763155697455292  0.7664198384481528
  0.3963173990087397  0.8176172497231980  0.7910967008264096
  0.4338535140247614  0.8127166401348126  0.8331575729500962
  0.4635506213682408  0.7701153938176765  0.8355624230703032
  0.4512721351498321  0.7322476524425041  0.8017767376724748
  0.9054822038413267  0.2219311681102178  0.2745485007134243
  0.8766925314564554  0.2641347630645335  0.2693636463267092
  0.8914129013595904  0.3049873335902207  0.2982615996301271
  0.9271865663384457  0.2996882160738278  0.3413031878792318
  0.9596884604221129  0.2592438198012133  0.3411598717324422
  0.9534045512491431  0.2249406760660930  0.3028162716903304
  0.1968321868254394  0.9474504442939488  0.7775603820250426
  0.1557499728408207  0.9585152003937937  0.7449668953974089
  0.1526193054646285  0.9262702476874655  0.7046625808829836
  0.1934910743402612  0.8908520774744073  0.6939606908239806
  0.2222605435162402  0.8708526599703460  0.7319906298936480
  0.2210317231271839  0.8971894398722964  0.7763145295042068
  0.6954231619855495  0.4339403286456318  0.2755776278064050
  0.6587995967026544  0.4483007024627695  0.2410569026796553
  0.6602968743739775  0.4225114692017757  0.1959903823400143
  0.7033907008366024  0.3878947305579648  0.1840777125321157
  0.7309693126176432  0.3651081575336582  0.2217314867942100
  0.7240670404596892  0.3856600501561234  0.2685943135362367
  0.7071313376062004  0.5917163846083814  0.3256552189740560
  0.7468412420823436  0.6006887053878346  0.2935123614982948
  0.7421681304486787  0.5807720430284177  0.2458185736797708
  0.7016981608803529  0.5444225182557789  0.2331067062632090
  0.6619000978654369  0.5350429929075524  0.2658279543683751
  0.6619686735872953  0.5635857818947719  0.3094006503424532
  0.1965901854796324  0.0609451862111308  0.7332849429643231
  0.1575634602559458  0.0505109044392109  0.7667085624552492
  0.1512479140996184  0.0847992374120694  0.8054413597199364
  0.1754947442795263  0.1352979057445260  0.8020635561105411
  0.2167198312396351  0.1444838465243280  0.7720872690714407
  0.2246444994139610  0.1100405525413762  0.7344444096024789
  0.3045883028395054  0.0551302014199487  0.2720701244952892
  0.3425225031432916  0.0455266090126726  0.2368807442578081
  0.3469542485819547  0.0818616017535695  0.2000246280018231
  0.3304135257527964  0.1344740578758302  0.2110246251800669
  0.2978388317811035  0.1468299360157815  0.2497845304880214
  0.2865133378830317  0.1079049547551342  0.2817126283035691
  0.8050110253255717  0.6132203442798250  0.6809273182850362
  0.7816117193529183  0.6329349996474429  0.7228785191542180
  0.7928562629289414  0.6109662380953979  0.7672593674950440
  0.8182338859448509  0.5644641381461394  0.7685019982991156
  0.8482343952765433  0.5488312427967166  0.7287402703305790
  0.8449629317157601  0.5767930254766572  0.6845703717839032
  0.8383862152441164  0.4349354915589991  0.7961158726513812
  0.8428549266477930  0.4629313021922113  0.7521931709066584
  0.8057333558139468  0.4552376495307576  0.7168598347031230
  0.7753454984980185  0.4087950273619437  0.7175931861206698
  0.7642125802453067  0.3860963872081506  0.7623951912207394
  0.7918605116344855  0.4031529911105689  0.8032215342437243
  0.3087491237861870  0.9400775520724424  0.2194676022875022
  0.3482764499537045  0.9519300984379346  0.2521374463109065
  0.3583175605291867  0.9170382904477441  0.2893648043038579
  0.3357025241807324  0.8656766838358936  0.2857163964943590
  0.2969318112876535  0.8534848090520537  0.2539553154574588
  0.2858182746968637  0.8883613044903449  0.2176792385318852
  0.7628019823474675  0.2067079359155098  0.9276286809643522
  0.7322431522819759  0.1635201152991186  0.9358379536719769
  0.7006347597036151  0.1502254288383565  0.8957307523326635
  0.7071648178827193  0.1745008072642756  0.8452886124152343
  0.7319708625105498  0.2196811247319932  0.8391957296962030
  0.7589220552702657  0.2361116224113134  0.8806340636269175
  0.1704721954899635  0.7167115058834913  0.3915724919151248
  0.2061238392594599  0.7536055156031257  0.3832656931529818
  0.2495638446543147  0.7506026868050072  0.4116482774339821
  0.2635610467666915  0.7051195962826154  0.4370081868559483
  0.2286401026107995  0.6681365994976833  0.4473886966119255
  0.1819433004930544  0.6728368005302864  0.4232088170581074
  0.3035477820629863  0.6938464126557546  0.6050352559147311
  0.2672051977577208  0.7255398901943668  0.6241603553136937
  0.2235041021662424  0.7287839415182601  0.5968977307592400
  0.2166939281409327  0.7030776961468838  0.5478423696486407
  0.2497847898153634  0.6651075547238753  0.5334017709524681
  0.2958175251898409  0.6649089154997395  0.5575486490931955
  0.8030247706137693  0.1821750149508937  0.0975466862203496
  0.7741824921944661  0.2215169521442350  0.1156071959845855
  0.7306171138263878  0.2348397742114353  0.0896539294055383
  0.7194610025339211  0.2138036667088858  0.0412160602137175
  0.7482006556644144  0.1732928250112474  0.0247139549308998
  0.7899405347583810  0.1608614167666162  0.0505983517920293
  0.2719567205598937  0.3078274766577385  0.0630269446827801
  0.2353433243125785  0.3438531111903286  0.0508200310642517
  0.1955093455326001  0.3450092913663790  0.0838949834643216
  0.1946235627762481  0.3103769818638304  0.1288064375691169
  0.2376938310845432  0.2894347206253445  0.1483977259297203
  0.2776064201356722  0.2889964105249775  0.1159586722664666
  0.6924043474258725  0.8445508798270808  0.5677664573469408
  0.7343782306612969  0.8434314021456842  0.5375112801176638
  0.7725109433753623  0.8117732625208424  0.5538141051344572
  0.7696188922260718  0.7890208469702698  0.6021523698408855
  0.7241403754870988  0.7778189989122131  0.6234469000451246
  0.6837703432479626  0.8034585929904448  0.6021762636594565
  0.8237833610643157  0.7891311920057309  0.4071968810776413
  0.7901941953752054  0.7506172826134817  0.3939051173000528
  0.7421947907031319  0.7559329353503049  0.4110440347395776
  0.7311659511019896  0.7945553233287657  0.4483393011555358
  0.7602655995235753  0.8378261582269634  0.4523791835453238
  0.8063392225741444  0.8373292353999964  0.4281413980014252
  0.2945441853411220  0.3458151969539273  0.9261144494712552
  0.2561119799593156  0.3411533299974012  0.9607308379140865
  0.2304815416231207  0.2948628661536587  0.9591488071965941
  0.2520543592925930  0.2502960078590629  0.9335821771109791
  0.2912806785292418  0.2548063774952389  0.9006046776024569
  0.3123962449828306  0.3018848973172532  0.8964687822479755
 -0.0026477391330669  0.1678091519681400  0.4999410440748935
  0.9538425378084436  0.1398466213237129  0.4970271975548054
  0.9252693091062657  0.1478944389366059  0.4546727448317155
  0.9445368170043448  0.1737745202303744  0.4105167191713256
  0.9870864718274850  0.2036965181716768  0.4125197405957469
  0.0158070445449002  0.1978639679293898  0.4568116742613132
  0.4492108297207545  0.6878134485628079  0.9077501057727526
  0.4916713064486566  0.7185989540854614  0.9086278770851465
  0.5218535149309964  0.7115007163538728  0.9501410917623581
  0.5189636672950326  0.6635814168241579  0.9792606647763475
  0.4740958670214370  0.6377230169521657  0.9830203194679509
  0.4369293146984766  0.6541766893392642  0.9508381716388015
  0.4872954364578376  0.8219162000456017  0.9377276721026955
  0.5206079575004450  0.8066188533491994  0.9005974159027405
  0.5650140723714403  0.8341805242844954  0.8966851837181307
  0.5783524296867723  0.8686012514609850  0.9393380459970923
  0.5432470253097493  0.8881721232835630  0.9714953623821357
  0.4954916169430396  0.8695593529211176  0.9659548291698914
 -0.0001967300032806  0.3376258449240946  0.4938216875300193
  0.0489886214842319  0.3542616210767964  0.4969440801072919
  0.0760860653095632  0.3470857204293309  0.4532884049118516
  0.0526676318498128  0.3246462180460808  0.4077113243293836
  0.0126364479674533  0.2914927792900688  0.4124083294559385
  0.9831002731015575  0.3008613248410683  0.4539928527765975
  0.5117730277844991  0.3019081363005736  0.5494310475534917
  0.4737954828074574  0.2831876313561687  0.5795053457627568
  0.4276085885937053  0.3073362995172918  0.5761390980040608
  0.4228899273097889  0.3543293723915393  0.5481304847085003
  0.4637860603991673  0.3761319640774395  0.5239573897751592
  0.5079550483024430  0.3503429791883889  0.5269548756414766
  0.0176917071638894  0.8177182162182294  0.0572565468675023
  0.9871298884258949  0.8034933970756420  0.0972431367017871
  0.9439825497649484  0.8311816054244128  0.1028801274739612
  0.9262524278868958  0.8648100621848664  0.0613651862239411
  0.9576040228804730  0.8822657528045185  0.0238418088185442
  0.0060146253010763  0.8639216257461677  0.0267116882849129
  0.0536918113095604  0.6841841871325759  0.0907159271636581
  0.0120137051570180  0.7153708020188549  0.0917288593864763
  0.9771436871033466  0.7063887310937780  0.0540361337022476
  0.9760547725369144  0.6565590810810231  0.0273557491470258
  0.0190601243150280  0.6286329793956545  0.0224087367656428
  0.0597167109111702  0.6466128269239326  0.0490137196981049