O  B  C  Mg
 1.0000000000000000
    27.1793000000000013    0.0000000000000000    0.0000000000000000
    -0.0669033501676605   27.1478175614861605    0.0000000000000000
     0.0000000000000000    0.0148214401429777   27.1310959515997467
 O   B   C   Mg 
 240  48 300  96
Cartesian
 22.9975466093907954 19.5423216130300723  8.8907347351737229
  9.3025198729887215  5.7202179327989819 22.6129737120505396
 18.7220380938573214  6.7564482012034794 20.7366677193822291
  4.6347013726125850 20.9048796586841767  8.1307806128304811
  5.5471458952581534  7.4944454001955947  6.3431268892014980
 17.8389424772473788 19.5034225444394202 18.3141768130501816
  8.4993696042805791 20.1835092368944267 19.0399140434031082
 22.3834184547338673  6.5126374154122875  5.2995691228459227
  7.8179712366024079 21.9725560051738924 20.4757229089445119
 21.5105670156975179  8.1712741101207822  6.7790741613166174
 22.3821959974561082 17.6338998700274701  7.6053508104584822
  8.0918137416767806  5.2064816395770173 20.6100894720044927
  6.4117150987798075  5.7483779996209838  7.7296987215839978
 18.7175193547335112 17.8630035439896879 19.7874614807430049
 18.8239634738920643  9.0281756270609588 19.9687195562189359
  6.2132087146690465 21.3910999526292436  6.3939056214559278
 20.1080544060932915  8.3326153256241060 21.8490767262962393
  6.7041918786375243 21.9271892510591897  8.6745382534619555
  6.7319095748536837 21.6505097215951601 18.3839824252426283
 20.9364268770582918  8.2257364655782030  4.4804202771138097
  7.1229277892137777  5.9385831977741734  5.4609448986358355
 20.1991823507717640 19.2487070585314974 18.5375042027980861
 20.9293337424692005 18.4426163895773243  9.3209608574063072
  6.9470698011080572  5.3498576525298391 22.6847888839686611
 26.5954517732187163  2.4415304607176656 15.5544225842833512
 13.6367034928466175 15.5026144324817849  1.1520017492029451
 14.0628823582845932 25.5421726180638800  1.2388060925797471
  1.0266641663707157 10.6848020817311795 15.6663959981335772
 13.1729360574204097 11.4991913889088391 12.1916685833194656
 26.5863074701406426 25.5168333004670522 25.8315872404839517
 26.9605580790264518 15.4740887685884498 25.9964687788392297
 14.3913789263091907  2.3317873290325379 11.6121065760968332
  1.4727026793199118 14.7555106598992030  0.1392194508093698
 14.7543433026188247  0.7974308709035107 13.4193129142915790
 24.9474998243471688  1.6078466909731306 13.8636725127078186
 11.6324174739719766 15.0449950408739817 27.2695657003883909
 11.5802708483683716 12.4868019008960243 13.6731768535138531
 24.2829465388925669 25.3342152573523087 26.3831629310973312
 16.3248873715203651 25.4786808975064893  0.5057341268954897
  2.9175469969028227 11.4014811771220508 14.4051683423844938
 15.8007249253474473 26.6513506977168859  2.6157573708514561
  2.3829059784920190 12.4866025089209511 16.4667235277165460
  0.4291095239631894 13.2484215804420682 25.7636836141626802
 15.0395869514669354  0.0851511044028622 11.1656828623941511
 11.7922827643172834 13.3018703522773531 11.4418028459567065
 24.9719398434369708 26.9865727176086736 24.6161908731971160
 25.9062628164902655  0.0974264235698155 15.4502236224990899
 12.4366750907073929 13.4860836212466335  1.5724922214666524
 24.7387028808279332 18.4205057807634347  3.2064206147685530
 26.4800898675352414 21.9344509927331970  6.0119967721482306
 24.5250184239615692 21.3614238044085312  7.6004256188072894
 23.8211868118062746 17.3288464005263023  5.3016785835878144
 10.5194804001478417  3.5301380309452037 19.6274997236601401
 10.3546966057391536  8.1500180687917894 20.4851085807676334
 12.1780655444400274  8.5410793138184253 18.6532630829481896
 11.5758225394462873  3.9994477792808802 17.2934642971107451
 14.3223585451949447  5.0152555351810761 19.1585337993075662
 14.5941779521588213  9.3192955042967203 17.2030359323385120
 17.2383406504174914  8.9590957200447949 17.1929291877410435
 16.0456323144845037  6.0956255507571377 20.7946138173262476
  3.2838032435068425 18.5394570965164718  6.3855574285760266
  3.8032723990411919 23.0802271647943265  5.4239111716272728
  1.8976346652677225 23.0221531083010085  3.6629407178257201
  0.7745799531489735 18.8681778849535711  5.7488630646179875
  0.8332859022548320  8.0869960629230953  7.6157137139121964
  2.0292402291835083  4.2982740679501692 10.0521692351655254
  4.5120607899014544  4.7972060925492110  9.5223334701584879
  3.3274070662492470  8.8175816458547143  7.3780103473817187
 16.0731352986491558 18.4239968086428547 24.0903272582261678
 14.4331082040261087 21.8961526364965593 21.1607244696856078
 15.3341907878171231 20.5372169002033758 19.1385891678241613
 17.7391232752436387 17.9392577166359430 22.2403870973051241
 10.4827155327720298 18.6322478461429633 20.6432565491434730
 10.0935885380550445 23.2782838921816300 21.3275979693302240
 11.6683385243037083 23.0736787033683299 23.3588622072641208
 12.9423119970381304 18.8376314648700180 21.5258117061766896
 24.1916549924378543  4.8072812573519057  7.0837687311036941
 23.6144532480701272  9.4198793218693666  8.0052301336954041
 25.0972092119721886  9.1095921649801994 10.1122363924470822
 26.6964495009333866  5.1404580050481723  7.9732721220330136
  5.8470070009281354 26.5109022663288982 21.9161186547935642
  3.0925214990137775 24.8986082188013675 18.2278168680848474
  5.3081899589828003 23.8168813228615655 17.5359399730603087
  6.6305324589957646 24.0274732655357965 22.0663319903914683
 19.2575589601430153 12.4814374743859631  8.5205488116993990
 17.0579649065303443 11.4904151655921201  4.3656363254973707
 19.2729488907888893 10.3530424356492645  3.7320070494038022
 20.2535605386374193 10.0955241936579494  8.3411176776993408
 19.0935721736302817 16.5910461756637382 10.0648724346117397
 20.7050520298438521 16.3362141341542646  5.6711235302794050
 19.0363541876230542 14.4246362192335784  5.1412869156301637
 16.9311387163510716 15.5148872209892144  9.3064969957350439
  5.9181984502121976  0.8030136413684208 19.0355612213652883
  3.5067380898957308  2.1476867156193657 22.9143108723374169
  4.2514090729845968  4.5749564792596331 22.4419268556609453
  7.0021653104012644  3.1521573467348305 18.9490642886536662
  7.6242213920481063  0.6003336660887055  8.1083218244483266
  9.8779758236212327  2.0503885662019270  4.2592996186230341
  9.4117899751808043  4.5025066807384118  4.9290249799742787
  6.8486700398916529  3.0293259649230420  8.5766596690446306
 21.5709511253371069 17.0407521715788839 17.2600882920578371
 21.1618550370627929 17.1040850755861769 22.0450428537289795
 22.0657746939363193 14.7310454117097915 22.1178429124587765
 23.7441915400900605 15.5919713426972990 17.5818247413277007
 23.6534905877529127 11.7223637936285261 22.5904313988703507
 21.7771692595418003 13.0863513463320498 18.4037818246638309
 20.0318798185215492 11.1453928747591071 18.5919405573196421
 21.4231409289700174 10.5015636005665716 23.0615447883579776
  7.7105486465211781 26.3840442634853218  5.2339192463890241
 10.3477982135356310 25.0378554584453319  8.9654775531436535
  9.5303941948385109 22.6098032713321473  8.5436762454287525
  6.8420776076013343 23.9532986930595939  4.9809337340881061
 21.8001819732613349  5.9452024115768900 25.9822329099928311
 18.1217125582363465  3.2496268093484288 24.5571057207213279
 18.4988329868935715  4.2430860911051749 22.1677283383957260
 20.9301720341345927  7.6730551937153528 24.3042279503443339
  3.3805048847758101 19.4921953639835834 10.1972092757844024
  7.5523113033924476 21.3636400299328386 11.2789539274476525
  8.5022105431856971 19.0626321605985858 12.0910611717966958
  3.9952241466451226 17.3355714363078839 11.5215163259715165
  9.4432501071901669 18.6846034382562500 16.8897014751806260
  5.0594630379947541 20.4196257501618099 16.5657623828811253
  4.8465666380056023 19.4324166286537583 14.1559755747753986
  9.1310191525106408 17.3961186822124887 14.6757238229789895
 23.1073331601000618  4.6481295283497843  3.1982771965749346
 19.0179703248452228  7.1869655894558999  2.8488205417143520
 18.5496064902232156  6.1424662276140438  0.4693445314260041
 22.5901129658965836  3.6749479412101080  0.7333290229964569
  8.1012717983570024  7.7027258949710413  0.8443790239571758
  4.2281729927913032 10.1659338776661325  2.2124126856192179
  4.0033249472939891  8.1999670136524525  3.8735509164999935
  8.5851811515077916  7.2896679432940577  3.3660000873461011
 17.9704511883225209 23.9230108847941594 15.6360891444421402
 22.2222248926829984 21.8529062787491668 14.5849985661731889
 21.7076088508546690 20.2267100820616719 16.4853089415887126
 17.1643280761975596 21.6603313028551838 16.6542939590459191
 23.6473092269050973 21.4909915414775377 10.7601367773566903
 19.0978693376197306 20.1342610517202409 10.6651516102198762
 18.8041691896275580 21.4790119211874035 12.9108426990633731
 22.8248934137836876 23.7716139587325870 11.6273960106674075
  8.6704079397699694 10.4030822229414390 24.7469588658791615
  5.0475153460045794  7.8039283031191369 26.4830077690138808
  6.1936366848783448  5.6482775727577037 25.5574422787924043
  9.4381712271923881  8.3327625981452389 23.4987216421629554
  0.6605363823940718  4.7350904305570323 14.6260014182414366
 23.9339659553461885  3.6400281383241206 12.2789836514652873
 24.9492975615210248  4.3950866639213642 10.0428628527032817
  1.6257507201469303  5.9149048165523403 12.5246659725352565
 11.2936712009260933 18.3631176301263466 23.6118607730568009
 15.0338711554456044 20.0966241193669681 26.0974399381065396
 15.1715504174803932 17.6337973381853779 27.2443208183755274
 10.6253571145545234 17.2026253212131657 25.7795407474347336
 12.0307360047114837 21.6624916950706883 25.8347741278427421
 16.0819414671240288 22.5852923107149159 23.4170880460163531
 16.7864848745835609 23.9273423628711619 25.4971606708895848
 12.2747493378433301 24.0439934758104386 27.0431593716565679
 26.2030399034955934  9.6960928329125124 14.0559400260645617
  3.2824875104226754  9.8080171792798403 12.0475985342880190
  2.0297817169419994  9.1453174534741830  9.9129983870438494
 25.5992047203699045  7.6375682906099129 12.5966926682405305
 15.2235127588817623  7.6626298857084167 14.8650882098901729
 10.5872395568360034  8.0111911799581783 16.3113744775104976
 10.4097696184288999 10.2608023991904727 14.9641426391878305
 15.1055884304737784 10.0554627437752711 14.0094951022689536
  1.5129415187422577 21.5507203344251366  1.1644619576855773
 24.8550781078495007 22.7179339991346581  3.7816065980320843
 23.9052482580487116 23.7930427819920176  1.6266837893345367
  1.1500798212874102 23.8469241034202817 -0.1859022863612106
  2.3626244020658080 18.4849058695710085  3.2943641867679387
 25.5381954481522797 19.9710272331182850  1.1228882151764168
 25.3318614872586920 17.4801226973979063  0.2909161084608148
  2.7801431620709618 17.1381712325632840  1.1458541209420936
 15.8650862054087547  4.7831814086642872 16.7224424670501080
 11.5455384520090742  5.5129898162487665 14.7103958822179539
 11.8268291078079262  3.1318168455885513 13.6344425706989831
 16.4076805725766484  3.4147539771192270 14.5840412571106732
  2.1457914683679915 11.0292744107992835 25.1244658068219060
  3.3350420632604956 13.4664592534161134  1.7924494410649603
  5.7749167126404473 12.6512654125221644  1.5809242678043955
  4.5916578400492378 10.2323368970834228 24.8149553033596746
 15.7229138732284586 24.5260398446104375 11.1850639823676126
 16.9093969603558349 -0.1262243405425515 14.9881679049440795
 19.3093196364874409 26.2630127929819608 14.7305034927104188
 17.9456145308463810 23.2771805500206419 11.1104750745321326
 24.3291208502694580 24.5870244046951072 15.4820654337426049
 23.2735205194942587  0.3896896417098650 12.0357133082816592
 20.9917319590581428 26.1942563332871963 11.6796729591676325
 21.7199760745626733 24.3922394793520212 15.9919617361651838
  8.8175365576663332 10.1737642101700310  2.3291335100542283
  7.1949419253443967 12.5281667247612383 25.6239051544206760
  9.6540538275665355 13.4231080167179186 25.3655003299089472
 10.1953409759504225 12.2926937612261593  2.8020365219991574
  7.8258725099924646 16.4259674609416209 10.7575772210219949
  7.4146993848787703 15.1625871258412293 15.3354629395741817
  9.1635362095442066 13.2856380271830776 14.8968439883708434
 10.4096696158301807 15.9474756906264528 11.2519916387536956
 21.7774820616906020  1.3895559135032609  2.0019757455209466
 23.0590706720753040  3.5852489171354871 25.0575141110223250
 22.9466567935141263  1.3423751840675777 23.6991361111982073
 22.1561091594408346 26.2577246136227522  0.7163492436941065
 18.9174284143522122 26.0784826996166430 26.6729385498978147
 17.4253681884126941  1.5218743337642042  3.1256831811654684
 18.1551377986952822  3.6823590832816984  1.9492394908791699
 19.7824753709870009  1.0908749613019606 25.4119149718492423
  4.8320782389295909 12.5860722224676902 12.8988996665674946
  3.7318852875042361 14.9524888531777123 16.8076106838692105
  4.4027791527295124 17.1591971727677723 15.6945179428517729
  5.3310649653259850 14.7994897754481745 11.6763139552517234
 10.1451837650082020 25.0075803321926529  4.3388414917709177
 12.4406846251546810  1.9064748010859143  5.6752392819341857
 13.7538499228616491  1.5724353041899413  3.4422482165862887
 12.4217088124626862 24.2248453885225530  3.3903756270096674
 26.1600981416550127 15.1848615101953506 19.1213788096014312
 23.7999445355215649 11.1386456073796882 18.1340043906684976
 26.0893935592347681 10.1200664686014346 17.4721645441643325
  0.4908425310462767 14.5211163768086315 17.0918122590749917
 24.3038959462772830 15.7814461240142716 24.1960838154968449
  0.6426441357288091 12.8240676841523040 22.9969908234259179
 26.3145427434028818 11.9714858064087633 21.0456108813699991
 24.4627696267974137 16.2620387003594971 21.5820121204749071
 14.6919196224261874 26.6570368937085505  8.3934413238577470
 12.1636150489641643  3.0375071474737432 10.0706249780450108
 10.0536349093088848  2.0564170816555043  9.0045267356731031
 12.6063907053075219 25.6204365472452089  7.2458746576058335
 16.6974319715349822 10.8423336251184175  8.7951978061157927
 14.8429471333671756 15.0888471494634313  7.6293946682735641
 13.8502309347247028 14.9923903284367483 10.0791941855879195
 14.3552947172140879 10.3206910646223022  9.8298255586624279
  3.3464695704362168 25.0629937424920755 22.6654477311603664
  1.1351506126517183  1.9010442134221668 21.2481786877528975
 -0.0687224903752617  1.7917912061671832 23.5601940203473355
  1.1095748752269863 24.4096371786168547 23.7953834579240500
  3.5725685697142802  2.4109115770025951 18.2258012275824655
  1.0568465483114595 25.7853844433680521 19.8752492000117833
  0.0702024023400798 25.7056857558599035 17.4169734393116151
  1.3747607043649881  3.1088458445497329 17.0902747764193101
 16.6809951036453015 15.9630865085533742  5.2506716635036632
 14.5622875031431462 11.7860428359857448  5.9125326851993831
 13.7162828911985812 11.8410744147608114  3.4758072166543372
 15.6833895701847723 16.0470939314536167  2.8671975904851039
 23.1840940673090437 18.7499935970168963  7.7773466329821774
  9.2763830641880816  5.5453292286380709 21.2436044675158797
 18.2313638618544225  7.7821450630913649 19.9448295117392931
  4.9559620335279053 20.9907435334638883  6.8001709602503357
  5.4473454002913400  6.7166504595049688  7.4903789241290815
 17.7111704949955353 18.7737283363998202 19.4853917331421549
  8.7435657756017875 21.0149192088814978 20.1138625958814430
 22.4870377961479306  7.2470332191332973  6.4606804578017503
  6.8880308863603332 22.3843853852276524 19.5418599681510692
 20.8068370188358536  8.7601621783089190  5.7450357353350370
 21.2149010496292476 17.5102231936889723  8.3346979851278373
  6.9758379709444727  4.9189057385990838 21.3697022998464945
  7.1896046958871782  5.2895963223040745  6.6837255893435232
 19.9860360510924444 18.1425842922691309 19.3245857627009983
 19.8145195386835731  9.2943721902275502 20.8999930577451423
  6.9702471026454607 22.0817971691087642  7.3259357734921533
 19.5353963474674579  7.0740856647218724 21.8069699666394854
  5.5983539421081447 21.1884002660988102  9.0857004771523417
  7.5014214163107562 20.5214203463078775 18.1504173815015619
 21.5130294449307407  6.9764119132458529  4.3206799993842404
  6.3401761654042481  7.0598128355648138  5.2990897898192912
 19.1176510076302648 19.7991715969991802 17.8565554251747045
 21.8261033672997726 19.4548097221698200  9.6087957913982773
  8.0848531892116089  5.8800340959785968 23.2603289199004024
 25.6920558467396383  2.6599403266224395 14.3813810746606645
 12.6960768808264337 15.8806412161061949  0.2200012015545849
 15.0098179373006744 25.0896463151645612  0.3394787094478339
  1.7967636103278266 10.6110216984965113 14.5259692471488648
 12.4876167319542706 11.4826126137893443 13.3955608324648754
 25.5933654099107137 24.9505400910267028 26.6042268292347117
  0.5261130183049756 15.7328702586950584 26.9673510147482141
 14.4500426560434612  2.0583817276736864 12.9620914988501763
  1.4379294010003036 13.5108132757293582 26.6724274806573831
 15.2740898164392682 -0.1145934786017296 12.5166502952840499
 25.0008981154400942  0.3513349579147699 14.4314864703552921
 11.4540248984881465 13.8760750614422470  0.6813441105082962
 11.1317148818152347 13.3170021721746021 12.6615808859777648
 23.9853603607942922 26.3889122142781325 25.5331635285232714
 16.6927641748663937 26.3084505169862801  1.5439924349157279
  3.1601233415944838 12.4178234703622756 15.3188396243161034
 14.4755377880222369 26.1213295181858527  2.4186772886323937
  1.2133409213661477 11.7515459816818861 16.5191524609273444
 27.0203197741962953 14.2855045233548310 25.2975136791685991
 14.4266907369920236  1.2529372625228170 10.7430690198365895
 12.8673125463468025 12.4579882763508216 11.2487728375470528
 26.2688471510354695 26.3094994161668154 24.7529425661732887
 26.6028734248227998  1.1572863301050678 16.0172608118168220
 13.5080092270133605 14.3216173357740804  1.8618144013357774
 -0.0630684697896991 20.5815182163124248  3.4742289528195096
 13.2235062204891562  6.5761410364500126 16.7975194560105194
  0.0219413338360541  6.7393110435973709 10.1951198520326507
 13.6711510502654701 20.6162798590620930 23.6344286483055406
  3.4363578605910470  0.1425246495362054 20.5038054133903884
 16.9417206985778321 13.3787313273477402  6.8574316217407256
 10.2137328490631685  0.0215792530911739  6.6148807222894082
 23.9092518269993448 13.6495013489368819 20.0695557571914591
 20.1600829656585852  3.6609237570318753 26.9718163829113564
  6.4104248076166037 17.0805819036420381 13.2841006505271224
  6.5677240633796306 10.2043222994582710  0.0598999009712224
 20.1896996378257292 23.8493057174350369 13.4698570422313644
 25.0666175217831046 19.0825437367240802  4.3015133999418511
 25.9452174817863686 20.1780927946331516  4.4392914135464192
 25.8032437481352517 20.8955435144430410  5.6726322207677686
 24.7707655312434376 20.4792543416428465  6.7048005026978208
 24.1814703987665958 19.2048703241411438  6.6873281894545826
 24.3541191762532421 18.4833558097535011  5.4941057880064861
 10.8581664071458164  4.7537597903612525 19.4149369911147396
 10.4840195750954699  5.7884584018991729 20.2919194777859779
 10.8449402582012961  7.0791175165223601 19.9299377651561436
 11.7863008401531868  7.3206513915168907 18.7689650919813928
 12.1051261971450472  6.2965810840579923 17.8392699464212434
 11.5658794166940435  5.0234195945883737 18.0897515491063992
 14.8244114963785876  6.1402024023836477 18.7736396383875928
 14.3828361536476734  6.9727750664928427 17.7322538805701733
 15.0519733198007284  8.2146851030266408 17.6752989576726982
 16.5237316002763173  8.2557124036708647 18.0065997986845865
 16.9392907379825708  7.5565458120358624 19.1430885830233954
 15.9758802404439262  6.6441981617901984 19.6465790393368387
  2.9787741698005266 19.6509921088155579  5.8079367186554514
  3.7949794715354157 20.7697285150480369  5.8019821151330646
  3.2628753804442310 21.9290380208072406  5.2313427730316526
  2.0351513542023190 21.9152105387076119  4.3285342050661875
  1.1935827776600745 20.7932359283254300  4.3490118695224229
  1.5663915057025422 19.7522498414526382  5.2625552979011356
  1.6663385511272681  7.4434289063109675  8.3480694930666051
  1.3212643706451348  6.5089714310083684  9.3761388184031489
  2.2514228806396530  5.4717949477408787  9.5442584259721404
  3.7037866086958537  5.6853305745484919  9.1023585079255760
  4.1305768714759186  6.7782034336677333  8.3010140933213012
  3.1283874232228466  7.7055483061841628  7.9888295934924844
 15.8309406387497109 19.1248756601026066 22.9789131436322265
 14.8921603439171832 20.1454410817563101 22.7600916034147147
 14.9759205742500914 20.7713936663837373 21.4590730727116430
 15.6492366438833450 20.0838771175449189 20.2947444587824606
 16.6280211232581010 19.1066806089921641 20.5296102418098698
 16.7765380423388528 18.7083174621005917 21.8723655059575783
 10.8445984353219327 19.8026513210907886 21.0208707925316602
 10.0801722874158060 20.9615435060187849 20.8744588791469923
 10.5720961433972622 22.1082839064422956 21.5191008331444529
 11.6522512611958042 22.0264257559444090 22.6066457171030102
 12.4860987041383797 20.8859003232278972 22.6642935385657367
 12.1917991995647537 19.8669086019501577 21.7283867003155109
 24.5196554420886237  5.9967717135892649  7.4952820662144672
 23.7293773575697102  7.1377851402666286  7.3717044062296209
 24.1333404951609332  8.2559792399516851  8.1335287700110683
 25.1515570414887044  8.1341389755120250  9.2636348666852300
 26.0381217276223360  7.0384795039918746  9.2445764216347488
 25.8489175653436369  6.0971659276426999  8.2139354297490996
  5.3450342907592567 25.7241490059055771 21.0397955709374394
  4.2199718627156591 26.0150323288894754 20.1761809572356370
  4.0990158082226884 25.1125777123098395 19.1058113523937827
  5.2281656510157983 24.1848502349451273 18.7680334164132034
  6.0466835082507320 23.6550343597331754 19.7821843362335308
  6.0121997072971434 24.3637268226847965 20.9928189430501106
 18.9194178217176372 11.8395014647840142  7.4588556322371105
 17.9065119452783179 12.2063003523969140  6.5286669926856735
 17.9293569284643262 11.4784422581892169  5.3171821686762710
 19.1218366776602267 10.5748415406023533  4.9769862943126233
 19.8817997653389149  9.9693811241352854  5.9976453571921287
 19.7021609906370720 10.5305503636826305  7.2698010213891573
 19.1337839038197615 16.1022173401635271  8.8684473079994177
 20.1755994435078421 16.4137680900192358  7.9831817064624317
 20.0297594030485655 15.9067900470773385  6.6822274699776081
 18.9684031939966964 14.8721894585039376  6.3518536945650537
 17.9048821491345471 14.5613124362778912  7.2557585883397948
 17.9116778245514894 15.3163457233604081  8.4459325740211018
  5.4081757017090499  1.6464728940899052 19.8583979163336082
  4.3439343539659996  1.3631872550239537 20.7597235025733973
  4.1533274108210811  2.2976081555466670 21.8037749051557945
  4.7752115734440457  3.6805200032060035 21.6950968925412759
  5.8945718030710790  3.9408350934354290 20.8839628880843655
  6.1403009641784640  2.9936287751332840 19.8784887729103552
  8.2244075695410235  1.4868466609010478  7.4003759278562287
  9.2717467626085863  1.2353866574903085  6.4624500490144090
  9.3733668223979549  2.2051143985829413  5.4424176852748358
  8.9029832329193539  3.6310159453183966  5.7094051301394950
  7.9913103341362328  3.9636212025440023  6.7352726558064129
  7.6559093195386367  2.9078252534101394  7.5922769726679169
 21.8295167574233488 16.6150369331540446 18.4656880147142815
 21.1315365956820571 17.1300702057100018 19.5822257967264051
 21.4511234967824791 16.5614100740882009 20.8024945793113361
 22.1631343472327877 15.3029261852859104 20.8666107599937902
 23.0174600913807161 14.8968588549277765 19.8138210969874571
 22.9427685422983849 15.6609568246625486 18.6161757140805655
 22.7885669693075918 11.7971320200879735 21.6284069189921659
 22.8677379096782936 12.5644101733488505 20.4451170387499346
 21.8210114989589172 12.4082504417422861 19.5088961636169174
 20.7637789838626681 11.3425971186676637 19.6486450004900028
 20.6609241082335764 10.5851242891291495 20.8206934845638365
 21.5527054243834080 10.9388095903651834 21.8651588402562318
  8.3041829916073429 25.5379600682687169  5.9902284679783575
  9.3840859847355897 25.8490437237037867  6.8725444654329539
  9.6436700544512739 24.8957284230691194  7.8832718810640641
  9.0278874516805345 23.5093865010204510  7.7750059111905747
  7.9643114778423802 23.1930568979758114  6.9231092409438633
  7.6746825616661720 24.1368089914426669  5.9348193527244311
 20.8496260552354933  5.5202576676992425 25.2374668339960699
 20.0763769414271636  4.3320340003288820 25.4527328889128839
 19.0988933793555518  4.0680359037330414 24.4545064732705555
 19.1505377760383233  4.8188359644600869 23.1057291074497790
 19.7542204575544460  6.0869953385248303 22.9921977474133570
 20.4754367704593925  6.4933304449089633 24.1285086535559614
  4.5780900071949047 19.4560571810571687 10.6821718713455098
  5.5505883155121856 20.4457534120982380 10.4261620272994513
  6.7444082637958047 20.3543384473423004 11.1758366005870204
  7.1461171864803328 19.1044300613637645 11.8221082189222439
  6.2071622949495309 18.0977441586561127 12.1158155721992973
  4.9157632594521861 18.2414534355519500 11.4975104337247096
  8.3043294587780672 18.8728625741808997 16.3207158631491076
  7.2979249166584133 19.7014776048755316 16.8567320069094855
  6.0966619235696902 19.7691751082058502 16.1397306553942705
  5.8969849895147339 19.0630554547879747 14.8314212723729906
  6.8093899540901548 18.0414250679624288 14.4330065023398451
  8.0783873138414499 18.0653106966227810 15.0499022053923603
 22.0431990284226309  5.1567864277230360  2.5635302248023439
 21.1775937243513077  6.1487233425576857  3.0647337860312125
 19.9449829635982177  6.3979962167502054  2.3852169284596356
 19.5915205969547301  5.7182734921850118  1.1186767679385334
 20.4374126866942341  4.6495055420503757  0.7142936922385423
 21.6575040844128566  4.5553698704309342  1.3270070029776666
  7.2964698297119099  8.2903847660439673  1.6507315790167156
  6.3345353410677321  9.3066217597499588  1.3225804791347255
  5.2538415445888687  9.3710013706258479  2.2217539385201386
  5.1761283521438362  8.3755298174537014  3.3893267455682343
  6.3304804010836948  7.7869545473249344  3.9336882010914129
  7.4373011877385364  7.7945125807097027  3.0860660655478318
 18.7935784113050204 22.9188664584194157 15.5174299733313017
 19.9905246679393684 22.9314556492294486 14.7361187971761076
 20.9252753028467566 21.9431814855039313 15.0878553356847345
 20.6683918565663483 20.9569696195669763 16.1509701737140361
 19.3849172522886875 20.7932796601662204 16.7083264900141479
 18.4013511989770784 21.7119692796751487 16.2861092544782728
 22.4013278361242953 21.5312561320866642 11.0547841667423690
 21.4769146620528204 20.5261360235126453 10.6677539736593410
 20.1714989096887614 20.7064980488946588 11.1403720921421900
 19.9086561596447602 21.6832062031533788 12.2594985805235606
 20.7106034791969833 22.8337800622450118 12.4172619073552077
 21.9520548934854922 22.8205479592395051 11.7337038666216866
  8.0053348845405612  9.3276651283599232 25.1163827532487289
  6.9333126122883160  9.2301021656985096 26.0262368802567146
  6.2158666138523389  7.9874356171319585 25.9758825449327304
  6.8042983969097151  6.7544871625267042 25.3168570717259449
  7.8926687986489021  6.8528690387311704 24.4475987112478279
  8.4888355961057247  8.1187132558907091 24.3397476817345613
 27.3029187220483536  4.6648326293454589 13.5759216438373027
 25.9146909980452911  3.9165411074280678 13.5100840587979576
 25.1454640967884693  4.0871293819927512 12.3461957868706094
 25.6881059485705201  4.7336190840164107 11.1243584278301793
 26.8324642981265882  5.5552878671668955 11.1720544776663573
  0.4374602076290576  5.4186523571968683 12.3740833160796520
 12.1282175198171807 18.6063232728594414 24.5949452710719854
 13.2430126162213391 19.4771113731432699 24.6350968624712152
 14.0650451685509772 19.2956087827941296 25.7739137690792077
 14.0349224386713374 17.9864692622575539 26.5430950261263199
 12.8419193136072849 17.2458134198000970 26.6103884149779226
 11.8155247552477309 17.7033109002350457 25.7623196765638696
 13.0893348727754031 22.2963134246904247 25.4645360237280691
 13.9918889310373764 21.8799151815584239 24.4544844277276958
 15.1763723190711133 22.6444477771510506 24.3341142683559966
 15.5523007856606146 23.6029866990041342 25.4672251458639671
 14.6032875406029632 24.1296294264616940 26.3572211688878717
 13.3097720833117705 23.5960455195854877 26.2392465703186204
 27.1375851277515068  9.2959074876293961 13.2795023126973124
  1.2959619807725282  9.7306945583029734 13.3630173588282144
  2.0611917259328418  9.4680594258030570 12.2190734852917675
  1.4201363474133284  8.8258590636897516 11.0004853372138083
  0.3237769283867584  7.9369338436621240 11.1468386559332071
 26.7122942433109678  8.2092790242083691 12.2860291466945153
 13.9616449324294400  8.2049322508881843 14.9702048542583075
 12.9249739524507152  7.7083599171836799 15.7848577654193480
 11.6780313619717351  8.3840134121514556 15.6974343241104854
 11.5645131326559341  9.6544203953571763 14.9403941431779455
 12.6788907697402031 10.2379413069664498 14.2915522328014895
 13.8719604413608675  9.5248936937251933 14.3686581961144864
  0.4406993727548860 22.1707414092897643  1.5202561336718285
 26.9811173790623897 21.8208378117849477  2.6086662961493103
 25.6308790374153084 22.6298353078782064  2.7511162133216862
 25.1362715231849947 23.4583180730074048  1.5591131339413653
 26.0083426292460622 23.9104816910328424  0.5541496060756067
  0.1442431909457469 23.4107131403889426  0.6653431292140500
  1.3991120469074236 18.5735496695529108  2.4443946956616731
  0.2636389979029036 19.4229939150374449  2.4670152800677361
 26.5258429054568943 19.1944795686762042  1.4148012269691381
 26.4984207226696640 17.8403586732842321  0.6904133297455730
  0.4899719664566315 17.0829350472677532  0.5632162194635215
  1.5883411795689248 17.5797948357380847  1.2830196756913799
 14.8730744980406051  4.7012894517186528 15.8980898166965954