cif2pos.py                              
    1.000000000000000     
    11.1037999999999997    0.0000000000000000    0.0000000000000000
     0.0000000000000000   11.2002000000000006    0.0000000000000000
     0.0000000000000000    0.0000000000000000   32.4346000000000032
   O 
     2
Direct
  0.5189799999999991  0.4677500000000023  0.5226804646077858
  0.5189799999999991  0.4677500000000023  0.4076195353922097
 
  0.00000000E+00  0.00000000E+00  0.00000000E+00
  0.00000000E+00  0.00000000E+00  0.00000000E+00
