import "znlayer.lt"
import "piston.lt"

write_once("Data Boundary") {
  0 54.3626 xlo xhi
  0 50.456 ylo yhi
  0 160.0000 zlo zhi
}

write_once("In Settings") {


write_once("In Init") {
    units        real
    atom_style   full
    pair_style   lj/cut 12.0
    pair_modify  tail yes mix arithmetic
}

