cif2pos.py
1.0
    11.10380000     0.00000000     0.00000000
     0.00000000    11.20020000     0.00000000
     0.00000000     0.00000000    32.43460000
  H  O
  2  1
Direct
     0.48229000     0.65286000     0.50903000
     0.48229000     0.78877000     0.50115000
     0.48229000     0.72793000     0.52332000
