cif2pos.py                              
    1.000000000000000     
    11.1037999999999997    0.0000000000000000    0.0000000000000000
     0.0000000000000000   11.2002000000000006    0.0000000000000000
     0.0000000000000000    0.0000000000000000   32.4346000000000032
   H    O 
     2     1
Direct
  0.4822899999999990  0.6525900803196391  0.5089376320806073
  0.4822899999999990  0.7881066270760188  0.5013304426143825
  0.4822899999999990  0.7288632926043391  0.5232319253050139
 
  0.00000000E+00  0.00000000E+00  0.00000000E+00
  0.00000000E+00  0.00000000E+00  0.00000000E+00
  0.00000000E+00  0.00000000E+00  0.00000000E+00
