cif2pos.py
1.0
    11.10380000     0.00000000     0.00000000
     0.00000000    11.20020000     0.00000000
     0.00000000     0.00000000    32.43460000
  H
  2
Direct
     0.48908000     0.63249000     0.50492000
     0.46959000     0.63219000     0.52673000
