cif2pos.py                              
    1.000000000000000     
    11.1037999999999997    0.0000000000000000    0.0000000000000000
     0.0000000000000000   11.2002000000000006    0.0000000000000000
     0.0000000000000000    0.0000000000000000   32.4346000000000032
   H 
     2
Direct
  0.4695714000876502  0.6321894094085857  0.5268967126466899
  0.4890985999123478  0.6324905905914128  0.5047532873533092
 
  0.00000000E+00  0.00000000E+00  0.00000000E+00
  0.00000000E+00  0.00000000E+00  0.00000000E+00
