cif2pos.py                              
    1.000000000000000     
    11.1037999999999997    0.0000000000000000    0.0000000000000000
     0.0000000000000000   11.2002000000000006    0.0000000000000000
     0.0000000000000000    0.0000000000000000   32.4346000000000032
   H 
     2
Direct
  0.5277018283697873  0.6330845602995238  0.4616914130212649
  0.4309681716302106  0.6315954397004747  0.5699585869787341
 
  0.00000000E+00  0.00000000E+00  0.00000000E+00
  0.00000000E+00  0.00000000E+00  0.00000000E+00
