H  C  N  O  Mg                          
    1.000000000000000     
    41.9087000000000032    0.0000000000000000    0.0000000000000000
    -0.1534031154544763   37.0075820595478646    0.0000000000000000
     0.4160014280560045   -0.1652947348400154    7.8554862227229156
   H    C    N    O    Mg
   120   288    32    32    16
Direct
  0.5825769023204498  0.5246931720446143  0.0812695545072604
  0.4315577225785553  0.5278775714395278  0.4415481569798115
  0.0730072091740363  0.0267905418092422  0.0664274107769329
  0.9244539694700262  0.0224251075159983  0.4500303045828631
  0.4320931832377861  0.4618906133385277  0.4591079611741214
  0.5823827738241765  0.4585043496762890  0.0903088882335116
  0.9270583279775531  0.9567998424041237  0.4545257211384083
  0.0730427545520374  0.9608428711802264  0.0494857056919121
  0.6546515211368694  0.6643558162132618  0.1883628842772192
  0.3500825372653877  0.6571515952609055  0.3381893931576603
  0.1576469836871225  0.1521408195092918  0.1785130220557312
  0.8462902684871993  0.1549414197822727  0.3145860867690791
  0.3447251894247678  0.3400519547545068  0.3145992761701853
  0.6644716654860422  0.3346805983937197  0.1838045336639605
  0.8420181854489712  0.8431208896239648  0.3184710361795409
  0.1747693413975094  0.8567552391774113  0.2052606332210549
  0.6519372959741518  0.7808901649859192  0.1852825583577064
  0.3576015714439603  0.7741036761297387  0.3374253287287490
  0.1590638168989147  0.2704258012216583  0.1526206456544783
  0.8429940589741792  0.2734585318008413  0.3747161696744811
  0.3416360020145250  0.2210282283208354  0.3148311242295676
  0.6649906384053142  0.2185529021872612  0.1343971314503163
  0.8340654076966113  0.7254690375710194  0.3158432421271067
  0.1718794263263849  0.7332706820542272  0.2283475236466670
  0.7061668791790364  0.8022318598756762  0.2701886773087261
  0.3055386536760396  0.7978702385772485  0.2415545849515713
  0.2126427435279050  0.2927003236639056  0.2385576589405660
  0.7900657602934000  0.2935491083007248  0.2727892800516094
  0.2883797073538204  0.1997705080737840  0.2184239865691095
  0.7172564239858057  0.1979344437753221  0.2438769749717907
  0.7801608336538874  0.7079690461376655  0.2125018468614105
  0.2261266633640015  0.7090587085960509  0.2842342612211565
  0.6967331208026007  0.6807346693598143  0.0182945450120705
  0.3072553346275005  0.6763323020976374  0.4771086382350693
  0.2026743588354731  0.1662853493427357  0.0515845628575373
  0.8010727627873903  0.1676514893270706  0.4394258221291412
  0.2975036025065553  0.3241320486010659  0.4363395221905809
  0.7098624576448046  0.3218157155052887  0.0425797291426773
  0.7944553583883754  0.8305302456622390  0.4443729028853494
  0.2183558581260124  0.8335017720925672  0.0901202530632086
  0.4988447980627509  0.6114957371857431  0.1294727219707263
  0.0034576979213066  0.1140120991853059  0.3457244637758791
  0.5041262033959953  0.3693413449663699  0.2521596882870922
  0.0058260046385206  0.8672772243269070  0.2680714638084902
  0.5725118034176233  0.5323516802278222  0.5689426965987273
  0.4211953512644307  0.5353162557143305  0.9209878823916262
  0.0786848284522115  0.0401022496658551  0.5853024166300921
  0.9296158365417013  0.0367303402879289  0.9577801765070110
  0.4214022318886117  0.4696117051964247  0.9309662458183345
  0.5713770203484521  0.4662830258906505  0.5577261045663046
  0.9314787423863814  0.9708607337049332  0.9653300513893949
  0.0803602945483180  0.9745574294002054  0.5917863312675344
  0.6545053774398641  0.6646243062449575  0.6975408174388581
  0.3403666038736777  0.6577860135819686  0.8067824459821471
  0.1546294482143978  0.1724126165970152  0.6752823907514212
  0.8388571048590590  0.1577622602159612  0.7889753965471281
  0.3379090032101456  0.3406308135962610  0.7828284218699405
  0.6560096187344736  0.3438310774429170  0.6680811875772861
  0.8399807984659208  0.8534352165846897  0.7494767774876139
  0.1589048872395084  0.8395546600639123  0.6270761346710667
  0.6502140192086042  0.7802199726524136  0.6741147930103539
  0.3328417886341264  0.7731440575049920  0.7986972581710765
  0.1556633353152033  0.2864127272972138  0.6630545804528180
  0.8380964177614848  0.2745382571458449  0.8506062424007331
  0.3354306651427476  0.2261397262443700  0.8142408940951168
  0.6588634613182133  0.2260685875198673  0.6107188918914087
  0.8342085035406535  0.7378861163435747  0.8211170565761682
  0.1466955659503553  0.7239322650532383  0.7854775096932981
  0.7033276480806698  0.8052339636957300  0.7592681167427345
  0.2775970923712699  0.7890487832193798  0.7160926292396183
  0.2096987739430414  0.3044958255152127  0.7676497848693091
  0.7858918896208386  0.2971967823017052  0.7490859580947713
  0.2809903664224921  0.2082013801478804  0.7153241913085694
  0.7110118112602498  0.2040247659365568  0.7140502599602713
  0.7805119456364586  0.7149498222030681  0.7376283850482686
  0.2008434645516131  0.7017633572149402  0.8578413021241328
  0.6988736601916599  0.6803155955428170  0.5411624976692833
  0.2943033739284434  0.6710026647829983  0.9667629214394157
  0.1976727288126571  0.1843209268422988  0.5046821464572712
  0.7925204271476635  0.1707132591052839  0.9163424904397641
  0.2950641495951712  0.3299535697783243  0.9580728687350565
  0.7029597651017384  0.3310843791121747  0.5587366744268157
  0.7915478161217004  0.8432648875504808  0.8926991919849325
  0.1954001104686263  0.8096051452857679  0.5105245857533819
  0.5024716452893968  0.6227505319985012  0.8238647550768506
  0.9953464873952859  0.1282887027070974  0.6988687284883004
  0.4953598298625024  0.3765904346219532  0.7347023939839261
  0.0075360835718944  0.8816214841462301  0.7635782602799082
  0.5326875546509098  0.6338778240331393  0.9969248643117178
  0.5737027549546151  0.6809262515192110  0.9861411558215661
  0.3672404708398933  0.6005924723057777  0.2945087751619688
  0.4101227539528105  0.5563893442838862  0.2362199680912497
  0.0954138304788631  0.0561240987366668  0.2872515527705888
  0.1387444664175200  0.0990302711307352  0.2235480065987397
  0.9698137067299940  0.1344863197431186  0.5047052257115644
  0.9256793923040443  0.1778953340733841  0.5342807373620307
  0.4228576980968408  0.3149010148255093  0.5379821391603758
  0.4698126820432968  0.3555532220945919  0.5055085913690117
  0.6382250099603154  0.3813951851256182  0.2995230837351918
  0.5908136830746515  0.4191854749034115  0.3548743175222481
  0.9668773032643903  0.8514213454550520  0.5175147216786334
  0.9187797908609839  0.8123967456435094  0.5351502235262090
  0.1386866688196693  0.9037748081374010  0.3450094025038462
  0.0872619943118058  0.9361958234319029  0.3463760047300753
  0.5913597393122232  0.5681718282434250  0.8307124037150022
  0.6335878087514789  0.6154399648341941  0.8009327936932942
  0.3661424560444330  0.6105020771626181  0.7132326402582005
  0.4120994339326582  0.5697164498252514  0.6885141854610166
  0.0871325936130046  0.0793839186600554  0.8034033659497973
  0.1322481709029035  0.1215232480050659  0.7660017679956325
  0.8633666402369230  0.1065502539209804  0.6992774992275296
  0.9104796345495159  0.0656687633546484  0.6719524702039348
  0.4100615966929243  0.4333934499071644  0.6714559027230765
  0.3635098453350619  0.3916386808534519  0.6841344394853515
  0.5853100069373994  0.4331581807228341  0.7913510624333614
  0.6315171394413449  0.3933292644374252  0.7515301611635556
  0.8686883195066371  0.9056117371683315  0.6717196267408737
  0.9171949609168846  0.9438732446419004  0.6788776113939415
  0.0746748273985338  0.8221841169711053  0.4675849525509919
  0.0325129559014185  0.8675402924176354  0.5196892097147179
  0.5323426627563791  0.5691529943815351  0.1636429725311505
  0.4752693131366335  0.5682415596186677  0.2521416289095787
  0.0298744689343400  0.0683193513911052  0.2550985310897627
  0.9726200499999857  0.0682766837688434  0.3430269887465219
  0.4769418631271038  0.4166772658466442  0.3135070265753669
  0.5335761511821245  0.4158883342135282  0.2083054034350703
  0.9760839008588993  0.9138143968860128  0.3289325681743387
  0.0321651089731399  0.9159589351493853  0.2221234565027133
  0.5338749313504341  0.5310590617450469  0.1842583842800240
  0.4769462275755065  0.5313829488712114  0.2955633565556727
  0.0290505651611847  0.0305994945216679  0.2251987702669782
  0.9725721848808052  0.0297499328592790  0.3395243693824697
  0.4778980201666492  0.4550127079671498  0.3213076879175835
  0.5340792097649616  0.4541049556710061  0.2023300976470252
  0.9750273854984188  0.9522352072996344  0.3394603663947692
  0.0301766324312133  0.9540966694509971  0.2129395280634520
  0.5614163185766982  0.5105134775156733  0.1314128058188453
  0.4516788340008374  0.5126070805980775  0.3841659973660498
  0.0542920137240871  0.0115843375648883  0.1350724322194908
  0.9461995595956579  0.0086803254074192  0.4022223252286442
  0.4520467101020925  0.4758823775427082  0.3950031116973732
  0.5613356813460300  0.4736553650967766  0.1374230535817196
  0.9477069696670823  0.9718332612612622  0.4050805236147123
  0.0547893242380003  0.9747892140219973  0.1291636539499832
  0.6345494141309702  0.6754286388680962  0.1239128463133626
  0.3712456756906617  0.6686650884821146  0.3945593827546719
  0.1374020789714653  0.1648162789862800  0.1215798046748956
  0.8649584946758375  0.1679759855380958  0.3859327658206068
  0.3632004279253012  0.3258625235129381  0.3795715833014713
  0.6454484135998239  0.3234488828375345  0.1084919071962879
  0.8599263350167797  0.8278332235633313  0.3823806173868234
  0.1537044568401653  0.8403256712555773  0.1790949018731088
  0.6387017029028372  0.7104363060334269  0.0738525785638197
  0.3675520668560543  0.7044069300715079  0.4402968612903245
  0.1438906074236434  0.1996520527182550  0.0734243459180708
  0.8581873024813692  0.2025451254087524  0.4409137809876554
  0.3557263602484720  0.2908274727094650  0.4191373322053515
  0.6517128188651423  0.2888074157826380  0.0499950040770383
  0.8509462731175917  0.7934755322298565  0.4240534304841775
  0.1585327036325923  0.8036615464237720  0.1640262858642258
  0.6695718086444695  0.7280092562328421  0.1045186235689402
  0.3371474535272079  0.7220604223085236  0.4039535688017052
  0.1756660835156848  0.2155478503355783  0.1061588007759401
  0.8270794367622067  0.2180974487357755  0.4046718452907724
  0.3245842633258816  0.2751601603736537  0.3762938016024707
  0.6824819786032950  0.2728899105174080  0.0918487165598734
  0.8191206369614061  0.7801234742474481  0.3812156130842712
  0.1900653432626395  0.7867966244399477  0.1707884010308345
  0.6728641341137477  0.7634791264734671  0.1675176158166220
  0.3359534765295539  0.7576432269791585  0.3463935828697859
  0.1795233565829427  0.2522238497240092  0.1503200644256314
  0.8230410938769489  0.2545860995919778  0.3663481195849689
  0.3211131558944330  0.2391207953583484  0.3206979612730699
  0.6854608145336608  0.2367817282129782  0.1396805116494971
  0.8142881957854973  0.7446255904441952  0.3218546716219686
  0.1931139426082081  0.7503131359598282  0.2138454788561335
  0.7026593734133727  0.7752633705125003  0.2159405274345414
  0.3073041701353969  0.7708292855009584  0.2924093218721506
  0.2090990238254103  0.2646507904716477  0.1987627625210879
  0.7940612346909260  0.2657159125535448  0.3085205479528914
  0.2918486905384421  0.2273180016259979  0.2655454635403232
  0.7140769691312623  0.2254037441607586  0.2009233290403085
  0.7847596533931670  0.7349524492062188  0.2635466010547712
  0.2228531277385047  0.7368260844762621  0.2457545010008755
  0.7287101580065796  0.7513607977352137  0.2014351545469108
  0.2802038688861654  0.7483881767693030  0.2987539606363393
  0.2347542440264608  0.2403875023372147  0.2020505104263807
  0.7695186734524813  0.2402461054409739  0.2888540820748430
  0.2661052177004028  0.2515866209217111  0.2660555388131748
  0.7393481350709484  0.2502483010869461  0.2137275510772726
  0.7602299234495854  0.7607761131029497  0.2664236820020719
  0.2493243520431609  0.7602310509234020  0.2382437615614598
  0.6977390274721589  0.7074432843743685  0.0805114089258102
  0.3080854268350889  0.7028576874339219  0.4178959318688102
  0.2035432984331084  0.1942204840753561  0.0996639488273387
  0.7999900334207540  0.1955097724306945  0.3961394300113831
  0.2967864774548992  0.2966237372512716  0.3823640301547988
  0.7101376503232468  0.2946486831248479  0.0948779510121833
  0.7925060407310303  0.8033415890928677  0.3881135363874030
  0.2187298381820594  0.8064175969391859  0.1432884838827151
  0.6146004394637429  0.7301704424596455  0.9967918567865273
  0.3897571501199655  0.7282144089994638  0.5165389244385513
  0.1226763751863467  0.2235289494079643  0.9955999177987203
  0.8808621627100531  0.2241882747425878  0.5248587155452938
  0.3782574706948071  0.2683153894071981  0.4943819761005282
  0.6307211307966467  0.2647227758399568  0.9668511823542861
  0.8720887708895197  0.7691694936869864  0.4982246636708165
  0.1321487953566549  0.7791790519496664  0.1750873612542471
  0.5021376904370320  0.5845556590125306  0.1764158278063993
  0.0019816746506340  0.0853865763746908  0.3180443460474186
  0.5049177629521028  0.3988080862369379  0.2568436418762805
  0.0046945170786816  0.8967610238990564  0.2749478281682494
  0.5056408727514979  0.5121406527759228  0.2449212477343541
  0.0011872682086052  0.0110719606797223  0.2825076882678184
  0.5059198941943550  0.4736632742400294  0.2574250015464057
  0.0021184346222826  0.9724195612033950  0.2792224304163788
  0.5283508784587684  0.5759439166218187  0.7368643178088613
  0.4706305010318737  0.5787729353026817  0.8108275864727716
  0.0269589378314150  0.0843350101947973  0.6926066222468475
  0.9699760758591778  0.0801301519099570  0.7818827852279728
  0.4682282072043098  0.4238788858513751  0.7960105890919892
  0.5247556423459384  0.4228240758634587  0.6954102052780764
  0.9750133116092897  0.9274889706989119  0.7978657758589984
  0.0321924801381657  0.9289733565827374  0.7082759113109590
  0.5268903181747048  0.5381210611736142  0.7098237820440845
  0.4693003964245258  0.5401375452212728  0.8084317804815550
  0.0301227799731410  0.0455872669546035  0.6946389296141366
  0.9732372252644337  0.0425455841584429  0.8027762157619456
  0.4684870492826140  0.4623412865114632  0.8071505649561345
  0.5251553278922879  0.4612491503040257  0.6937053202103372
  0.9756168667912900  0.9663153267110739  0.8100236391920600
  0.0322039773863343  0.9672323326448151  0.7004081964441136
  0.5526825474595300  0.5178535556249027  0.6317454171112419
  0.4419536048405426  0.5203597773434603  0.8689103218672881
  0.0578528607732273  0.0255169462052245  0.6360446133899237
  0.9482874441461753  0.0222770434993953  0.8839907085693577
  0.4419444898881303  0.4834105718422058  0.8715438602133229
  0.5517789566926411  0.4810267467168127  0.6235662826102302
  0.9494105308879622  0.9857053052415677  0.8893273812042432
  0.0586783711934549  0.9882893206316874  0.6380980156649990
  0.6342014701710547  0.6750454823505212  0.6315950586862162
  0.3597248211994112  0.6727240642078259  0.8650390976708565
  0.1344791132559764  0.1835271781798856  0.6110480871918041
  0.8577861470869181  0.1695222864177043  0.8632430746137925
  0.3576556253851649  0.3297264752992191  0.8508253298977200
  0.6372526595084985  0.3308288591913602  0.5965024796869978
  0.8582916341262772  0.8414140689231340  0.8241234123324370
  0.1359813772961170  0.8261786002326783  0.6101549559651767
  0.6390737342156799  0.7095996663671288  0.5769447713243280
  0.3512369433589900  0.7074331555819153  0.9118952808767187
  0.1405150726949226  0.2176129937247993  0.5523220616996977
  0.8509267377934272  0.2038668620687805  0.9230851998479106
  0.3516331753756740  0.2955713386592949  0.9093842673224226
  0.6449168011577454  0.2962912459352943  0.5426973791740674
  0.8495284673003302  0.8081649931220971  0.8863033550585698
  0.1363294123667561  0.7890091472665111  0.6223151929651974
  0.6698685591650200  0.7273233269067447  0.6107896055801577
  0.3184987452995195  0.7198141535001327  0.8802495151855467
  0.1720775492663936  0.2327706819384067  0.5881911511990263
  0.8201771774942690  0.2199691999433060  0.8808755941350555
  0.3199215823659971  0.2806057343357100  0.8794579679661696
  0.6759159599169692  0.2810945080815277  0.5858960144067877
  0.8177802311984532  0.7930934964523132  0.8514560021320818
  0.1662500744500181  0.7701739751916504  0.6492156003469435
  0.6717573608787425  0.7636010147946311  0.6652038363013835
  0.3130385979011499  0.7542041924431970  0.8162609599482228
  0.1759768857358452  0.2679996176335622  0.6528043489212573
  0.8174891471950575  0.2565989071555763  0.8412554326328574
  0.3154266219134965  0.2449526394900119  0.8220168346455425
  0.6791747520963752  0.2443482300754236  0.6224861590125031
  0.8138674849759788  0.7560278570798334  0.8161673846681256
  0.1683388832426833  0.7383505573341408  0.7418771235684354
  0.7008448648763966  0.7774612495967129  0.7128820049643508
  0.2826721587610140  0.7630569166408779  0.7705916089358128
  0.2054136577403139  0.2779536178406439  0.7109235273596127
  0.7888886974253424  0.2691972716160818  0.7849469808371059
  0.2857490240608853  0.2350387563631375  0.7677029532236923
  0.7077577343457955  0.2321154726998418  0.6802067317405001
  0.7844182770463499  0.7432753195012541  0.7705406713528887
  0.1982014034586846  0.7261728580037249  0.7847120539835813
  0.7277451096624156  0.7548892173635018  0.7052402599632214
  0.2578193696329346  0.7376791658489962  0.7919450997003704
  0.2302770008829324  0.2525441725432700  0.7018784611869083
  0.7632312064152686  0.2450253239320831  0.7691151902131793
  0.2612040764459045  0.2608876633554663  0.7730727171604029
  0.7329542530280229  0.2566627741387065  0.7002068840376439
  0.7589410132076654  0.7675799305811564  0.7627776126614711
  0.2255620626576519  0.7465153148198809  0.7378576348475903
  0.6986467248794158  0.7077381243231597  0.5962357866352147
  0.2916414307175064  0.6971097877450514  0.9061255348124774
  0.1992560792087515  0.2106101722360613  0.5699431110484575
  0.7923569888476398  0.1986327454610843  0.8727279728674349
  0.2930047686318911  0.3032393546308089  0.8966222367406623
  0.7033588702387051  0.3029391688057772  0.5988730851946589
  0.7902281641930341  0.8147809893336964  0.8516364628776357
  0.1953599792737830  0.7865332195483534  0.5949161719874518
  0.6167748800036210  0.7316222142958828  0.4976002829462499
  0.3716605968839412  0.7350650988426087  0.9733489583292319
  0.1203705373210655  0.2422908415293298  0.4729174898600723
  0.8706201887512124  0.2279405584820987  0.0149151335987114
  0.3718730352905584  0.2714372503051156  0.9869364842317416
  0.6250280095214853  0.2714052891018272  0.4567783848944973
  0.8671858209157086  0.7840190869831558  0.9794622037253121
  0.1058438592502158  0.7736055288122217  0.6558054602811252
  0.5007286807717781  0.5942507943934826  0.7907057167068131
 -0.0007142471636171  0.0992607121847166  0.7238494872716247
  0.4961012034257617  0.4057840788957110  0.7432205332587210
  0.0050960624054328  0.9099952054892096  0.7552072269053768
  0.4977021474297696  0.5198782299055057  0.7585946544147241
  0.0025186185248319  0.0248576872231759  0.7499875721276507
  0.4971690678613774  0.4810912868298397  0.7536476883676335
  0.0035369353183942  0.9860482461968784  0.7541650831948999
  0.5543390938279297  0.6296695161678331  0.0648861400978070
  0.5590301653847420  0.5951520474443168  0.1424461891467083
  0.5877571060024933  0.5905549508061668  0.2261411883103055
  0.6128000703961967  0.6179193493799585  0.2109988862694882
  0.6083364268343522  0.6503382544143115  0.1200440774419675
  0.5783160978352999  0.6559286997823305  0.0513260634217498
  0.3917547395152725  0.6082012921321994  0.3199476010023550
  0.3974080083823567  0.6434011549659552  0.3845012120190632
  0.4298597248674206  0.6523134174666265  0.4087955137489911
  0.4547703651709345  0.6287362876333779  0.3444585727540170
  0.4484909937414587  0.5925904335938461  0.2932516328250337
  0.4160222646072807  0.5833533356340196  0.2837797125546527
  0.0899272284421828  0.0821093513272974  0.2327808970463429
  0.0577041546118880  0.0911249332300292  0.2121951489479212
  0.0526265547907536  0.1254205349302462  0.1475249201639837
  0.0777712239789739  0.1493076063025632  0.0944693219105001
  0.1098332203958676  0.1411617568221792  0.1286761903773352
  0.1144565939700562  0.1064516769073921  0.1956665285886993
  0.9476088012848591  0.1276863948601493  0.4453019159316420
  0.9446375590568427  0.0927162031663692  0.3651096590899520
  0.9156655021490009  0.0856053597517384  0.2844997969177251
  0.8896908967068666  0.1117368767110624  0.2982610747751002
  0.8924824831634566  0.1450632299846370  0.3913781997362220
  0.9224248190138482  0.1528837389928314  0.4611060059567068
  0.4213056691593240  0.3389300094768714  0.4607543589758591
  0.3917826960269212  0.3477562068207393  0.3893107176925099
  0.3904968663257666  0.3808932855839997  0.2997947504536878
  0.4184663266753232  0.4044809318377885  0.2796425551181584
  0.4474969653422897  0.3951909020622620  0.3526964921746464
  0.4480259460026870  0.3622136799540696  0.4431214406517709
  0.6175299360479569  0.3763304358909935  0.2237574306005020
  0.6182751249276944  0.3468780326710188  0.1103721985397858
  0.5902569750448754  0.3406196031785501  0.0102091613755116
  0.5626321304276748  0.3662204234801806  0.0376178945082570
  0.5625511761087183  0.3938872099535886  0.1653650987432674
  0.5902344007295074  0.3980807737765050  0.2561405289352157
  0.9459806265911257  0.8588815156881767  0.4489922131168335
  0.9466883604948798  0.8921540755708720  0.3590826911560859
  0.9185192423646015  0.9025374764855481  0.2790247334458889
  0.8896716520164138  0.8806931528070426  0.2974917366527227
  0.8895521262121890  0.8476641224967464  0.3888798769755731
  0.9183797921458905  0.8370155627798448  0.4618860853647900
  0.1198963131612630  0.8937905700742026  0.2647020691628163
  0.1238808812829043  0.8596099887791737  0.1752558079314400
  0.0980375632390019  0.8466589654133002  0.0797139557934642
  0.0671382675438923  0.8651273974876217  0.0901472164101255
  0.0631791383887038  0.8972284619960867  0.1898944486617005
  0.0903318851153653  0.9114556264772913  0.2701563636919001
  0.5874768664898873  0.5918957108527589  0.7549460767525588
  0.5561817933078869  0.5993496007837240  0.7044059448693158
  0.5509172711450367  0.6325279439125463  0.6264544816476905
  0.5772269636626951  0.6545328925393050  0.5614068723811571
  0.6074494013872274  0.6503908212258630  0.6384795976353147
  0.6114491213117222  0.6183883808949961  0.7350439379044844
  0.3881569152827275  0.6182270569488890  0.7729384386891361
  0.3888291847831931  0.6521237169591699  0.8603285011205655
  0.4175379914931421  0.6619999779764320  0.9376250081862603
  0.4461275090451199  0.6401828177439561  0.9027655870507851
  0.4436728704439434  0.6046222040692546  0.8259897559533692
  0.4139020416797736  0.5952033878409833  0.7590639160922448
  0.0844106265351740  0.1036625936377128  0.7299110051318543
  0.0538456562175413  0.1108454378620093  0.6658810590598768
  0.0500753319509934  0.1446881150288610  0.5777962604072675
  0.0778092580525011  0.1680649548838521  0.5487128760767009
  0.1070651386116642  0.1602780262017531  0.6219974016021950
  0.1096615430334334  0.1275489149469554  0.7098095256262495
  0.8847762312951528  0.1133208913474895  0.7671316922818893
  0.8855781060641493  0.1467962088093922  0.8608503068778479
  0.9142894871111792  0.1553543526858142  0.9437171342812205
  0.9432049619420698  0.1350141244629348  0.8993561778560404
  0.9411030133142605  0.1013118280945094  0.8128626240230140
  0.9113402492526352  0.0902368038785319  0.7506624067737108
  0.4107362910604272  0.4093513923459788  0.7484558441676402
  0.4398225009961041  0.4006358158536635  0.8243090962807802
  0.4409988419156435  0.3677117150847843  0.9126993835882081
  0.4132208856370260  0.3450538957660045  0.9345550553392667
  0.3850842354789779  0.3530411731927708  0.8484171527062899
  0.3843929167686466  0.3857552815674119  0.7560857533179268
  0.5829820527739003  0.4084191219596832  0.7150712745214360
  0.5528723021444755  0.3997781002714589  0.6544706883580644
  0.5503333396256749  0.3653715654267041  0.5692376200137906
  0.5794489386821354  0.3437341911920616  0.5218509600132758
  0.6090834457504077  0.3529561227308077  0.5971049314671210
  0.6094621784173228  0.3856706219122507  0.6916460880636865
  0.8887550285908289  0.8970901318369038  0.7444249653887909
  0.8871902519341558  0.8626876899878401  0.8272616804729837
  0.9146100775134990  0.8521238340852365  0.9128813522445690
  0.9442363200858095  0.8733609426372966  0.9043393764131717
  0.9451900636393573  0.9066566204376167  0.8166790406022768
  0.9167940857882020  0.9180417218188828  0.7433588662264419
  0.0787569064925549  0.8451711903011933  0.5533768978733833
  0.1098708192080126  0.8512438949638574  0.6150247861374027
  0.1155397266715036  0.8840736360253327  0.7074544497199238
  0.0902954354097732  0.9108899557392346  0.7355638453521165
  0.0601189306308785  0.9048828607097318  0.6679450096640491
  0.0552964070498562  0.8716851873924570  0.5777980145220314
  0.7261988841845985  0.7181927415590423  0.1285278816685165
  0.2805822398856010  0.7151595552344800  0.3665545350726642
  0.2319209327164451  0.2057674476863860  0.1466251833227554
  0.7722623780621809  0.2057521059287154  0.3386914674169529
  0.2686738799670257  0.2857354337609972  0.3282663142592058
  0.7375362678961425  0.2841907226151548  0.1553978337395687
  0.7640289768025064  0.7943856171832142  0.3323023605323008
  0.2473429015247930  0.7940704031339753  0.1791046308537737
  0.6013429221227681  0.7527569553112615  0.4299291160939602
  0.3851391781310797  0.7607516874963671  0.0218895264578689
  0.1088764946882931  0.2668295264219926  0.4071113609755647
  0.8826183310218084  0.2513293178901719  0.0913782184650353
  0.3840605882569331  0.2465955771649545  0.0567621307425765
  0.6120805695239261  0.2479594917146040  0.3854322661113836
  0.8757942326243676  0.7591414223418894  0.0646830134283406
  0.0787497154407794  0.7678750303061354  0.6965050657706213
  0.7265759636186464  0.7206688943088060  0.6429787608887102
  0.2621710853085774  0.7054038841322715  0.8636504790616643
  0.2275203604447843  0.2197406624415568  0.6263457266676299
  0.7648853203323283  0.2103257846932759  0.8176130180610014
  0.2644849945068605  0.2941217591665380  0.8440128903538990
  0.7308744934339605  0.2915529422717870  0.6549740170390099
  0.7616739041537043  0.8028074161311147  0.8086964751531416
  0.2238051487590433  0.7758923407314787  0.6397791883093105
  0.5949017613454577  0.7457811999641644  0.9276120670826732
  0.4040388913115707  0.7514848140496651  0.5816368163511251
  0.1086408168956960  0.2454749494084796  0.9252390077506438
  0.8998083579925967  0.2411744159084558  0.5966569665395123
  0.3971737647657796  0.2507573018234511  0.5594292155707719
  0.6170621750272011  0.2411268161194608  0.9003205120096320
  0.8893718084652095  0.7494950158044282  0.5630797198485036
  0.1122195125626770  0.7574715935402313  0.2025763694948312
  0.5920913100882872  0.5632956698760772  0.3304430093478518
  0.6385046431982891  0.6130839956223598  0.2985426504706720
  0.4406202023935514  0.6848640969695422  0.4646836765897251
  0.4842002330766348  0.6471518673485614  0.3372180814418210
  0.0226202042342366  0.1406206720077953  0.1317707314272374
  0.0666614533370784  0.1813083847285190  0.0321366762748414
  0.9115950674912641  0.0571812327753645  0.1822242133853614
  0.8644025395932043  0.1047305111994566  0.2088776004257832
  0.3650508221198462  0.3896290832506653  0.2169438690432198
  0.4160744528681403  0.4324678722882389  0.1791907708297131
  0.5877804678427249  0.3153451651075280  0.9040185796152256
  0.5387907344377844  0.3605005120459453  0.9433608905365856
  0.9177355673376439  0.9306159827377201  0.1778561097174323
  0.8648423227982631  0.8909056852915888  0.2139010882599672
  0.1010008507497579  0.8188474019357491  0.9763905905974399
  0.0443817535924028  0.8503516138718035 -0.0014689992651975
  0.5221868886453218  0.6429546413573070  0.5732564732156146
  0.5714669727293933  0.6755931346146273  0.4365964851481750
  0.4192677815152080  0.6888088754329931  0.0485981667669555
  0.4727838747941053  0.6532490260045527  0.9809703345494226
  0.0241110312719090  0.1543902674578041  0.4970516289405834
  0.0752682537527806  0.1948699413532035  0.4448433436592646
  0.9157348622749542  0.1803803493211819  0.0626290119057262
  0.9701224244211125  0.1477670517655594  0.9667761653890035
  0.4662340245375782  0.3555912637573428  0.9933227477705160
  0.4144271386637867  0.3177330683639504  0.0355151449206275
  0.5239692606768841  0.3506556211636069  0.5212978252087913
  0.5756099386533633  0.3169154996267561  0.4178093523204066
  0.9139887627082460  0.8235690241106004  0.0085927522646957
  0.9676131889894977  0.8614751543386825  0.9902632871728565
  0.1420807046266826  0.8891242909119617  0.7878704523435598
  0.0964638113129475  0.9383590550242180  0.8392424918831374
  0.6188452833151226  0.5872716000647494  0.4859078261489257
  0.4750687514342041  0.6557356941643357  0.6013623478657768
  0.0307469627928389  0.1535779325211807  0.8943209809368537
  0.8858486719544278  0.0801706186995389  0.0184271169911427
  0.3863071330287770  0.4123718009782243  0.0249285676760314
  0.5055456602213879  0.3272539089177308  0.9870602766990197
  0.8869336005138678  0.9138168670375815  0.0225433747105742
  0.0653534241981675  0.8175881107708683  0.8289513168419095
  0.5338299532365812  0.6501607492377882  0.3285120562503505
  0.4558563079989896  0.6821464356055698  0.1851884553977258
  0.0434230431033031  0.1803046090152971  0.2895432195478567
  0.9496982575637586  0.1596035885470741  0.1910380186400439
  0.4483178863614145  0.3233685466393273  0.1942086818366125
  0.5308501960821431  0.3124205754351876  0.3366369264125162