H  C  N  O  Mg
 1.0000000000000000
    41.9087000000000032    0.0000000000000000    0.0000000000000000
    -0.1534031154544763   37.0075820595478646    0.0000000000000000
     0.4160014280560045   -0.1652947348400154    7.8554862227229156
 H   C   N   O   Mg 
 120 288  32  32  16
Cartesian
 24.3685646917614420 19.4045102509077232  0.6392625242267049
 18.1883892845396744 19.4624850030069645  3.4678095128448336
  3.0831961182198904  0.9804827776146986  0.5224148897293541
 38.9278725402811929  0.7547241517915446  3.5344016429705234
 18.2283334247695556 17.0176157813137579  3.6063274773459790
 24.3736527680269290 16.9536599004608348  0.7094408630565594
 38.8952376531599668 35.3338670001097910  3.5703833448495783
  2.9335423282349216 35.5510012648091163  0.3897288999244043
 27.4116559061101519 24.5556679329748953  1.4799065884790867
 14.7102548244229254 24.2643452472128907  2.6562414374499053
  6.6587833043371454  5.5993275367001099  1.4023547296910015
 35.5739116507549653  5.6817007910135224  2.4708985020465697
 14.5258157434686872 12.5320698475640722  2.4708031085412205
 27.8722299794458088 12.3548753578329755  1.4441251699198807
 35.2905707019194921 31.1497069650115996  2.5017059977925222
  7.2767508063728794 31.6719610786666124  1.6120990923170886
 27.2783948198130126 28.8688514831649989  1.4556950652725626
 15.0081149397425477 28.5924389637595588  2.6508880087659215
  6.6878101689291567  9.9827010848073261  1.1989295890077518
 35.4423033248327641 10.0581844835249328  2.9433982579608426
 14.4155215220946964  8.1266088748714242  2.4727470663027185
 27.8907703340965902  8.0651747633081854  1.0555213290891856
 34.9742891119768089 26.7962509514388465  2.4812907596942044
  7.1857821062371317 27.0984565356646421  1.7937581591355118
 29.5837593055714514 29.6445171341814202  2.1220829926319791
 12.7828817194478432 29.4873095655756075  1.8976041725306119
  8.9654473344459600 10.7918503172659577  1.8733649993864783
 33.1784615070787865 10.8181909684076683  2.1435378855192919
 12.1453253943356501  7.3568967562245824  1.7160019299363463
 30.1305421773521473  7.2840879931856257  1.9157760484241537
 32.6752708913412775 26.1651104745147478  1.6691839717024377
  9.4865224541897302 26.1937221749912155  2.2325069926412766
 29.1016394717510209 25.1893542878722556  0.1442029111322686
 12.9718133873331993 24.9508767632587123  3.7481105932900998
  8.4895963411953943  6.1441018511766767  0.4052909086149570
 33.7293663936900927  6.1312564765371516  3.4514665802610649
 12.6005139366139733 11.9231972824151118  3.4279983408329135
 29.7173260543533004 11.9021769740526260  0.3342117459408984
 33.3517917151154109 30.6628449720155629  3.4910139658940662
  9.0603555539961160 30.8313993194589528  0.7076634483509265
 20.8642966399437029 22.6075452449876515  1.0159590400063723
  0.2720108587696111  4.1615216596063433  2.7166921911262434
 21.1753709580995064 13.6268050146522377  1.9807174106806249
  0.2225562709808289 32.0516134946204829  2.1058552510585922
 24.1474260526300242 19.6069022585522070  4.4700667569432744
 17.9521853404541147 19.6593585146394680  7.2347276193003314
  3.5381336576705644  1.3885235115414802  4.5968325994902317
 39.3521032961993953  1.2018272096769775  7.5232649883857698
 17.9766686353840903 17.2264943119242275  7.3124605175979651
 24.1060783398953653 17.1644869688496655  4.3814404542228642
 39.2910707377690187 35.7689407236441070  7.5832498128503669
  3.4663376460142361 35.9677193665613473  4.6481947320070223
 27.6182792953634468 24.4816587773604120  5.4794411268412970
 14.5003877712836342 24.2095195827102252  6.3361931783977505
  6.7363670913329008  6.2687529564952076  5.3046645015382596
 35.4596532240187798  5.7080681374804341  6.1971514780824686
 14.4364176597810534 12.4737353629566030  6.1486061306590631
 27.7176334519812393 12.6140792158891433  5.2479834486949910
 35.3848063543374067 31.4559938744025480  5.8859886772525529
  6.7914300580959557 30.9671177888326810  4.9260685485504663
 27.4122130586212123 28.7619890826459113  5.2950144944456614
 14.1646780004119019 28.4820381690685061  6.2732842457221762
  6.7558897323571285 10.4903278063827710  5.2084030168727571
 35.4351574732629828 10.0200952990341587  6.6814850700183790
 14.3637691378780392  8.2325814103615116  6.3964591897727257
 27.8320723667152663  8.2657165609579728  4.7974071701434182
 35.1911422016614139 27.1699290795425838  6.4504274745044867
  6.3628732242580517 26.6611346889859888  6.1699920578538165
 29.6688978779991821 29.6735628342301148  5.9640740431530475
 11.8099272863647968 29.0838906870067397  5.6252814529482977
  9.0615478856584151 11.1429646608281256  6.0303005091440092
 33.2013532031194245 10.8740614173746319  5.8843893818757884
 12.0421952562032359  7.5869261351327850  5.6193134754245424
 30.0634100249963296  7.4326883634676797  5.6092338125454297
 32.9074181860258292 26.3372300510417858  5.7948525390243564
  8.6653170840991898 25.8303418002447458  6.7367822049364383
 29.4095257391827261 25.0861930928741224  4.2507868279117051
 12.6333580864056980 24.6729358245564967  7.5937366503897117
  8.4648034195587698  6.7378861524876292  3.9634621315741718
 33.5691965340592162  6.1667209025566203  7.1976952632732685
 12.7136844485776539 12.0507787861983235  7.5251658364226097
 29.6419234472968682 12.1605204025246749  4.3893697605633264
 33.4154392216764933 31.0571010128863882  7.0125901956196870
  8.2770148864416502 29.8779320102049972  4.0099309841950310
 21.3048080531949289 22.9104472987409551  6.4734895385181348
 42.0042585374912605  4.6225627796741238  5.4895289612402607
 21.0085482733677722 13.8149378235698794  5.7714547940798901
  0.5607966422217678 32.4812813748116298  5.9902420331241073
 22.2244569552902682 23.4587898408866131 -0.0224251701000095
 24.3481044941324214 25.0366307371557113  7.7474615913626010
 15.4202959413498029 22.1770863218108225  2.3113132481893301
 17.2014249185750039 20.5522640908521197  1.8562430973409361
  4.1090924677594183  2.0311194626603655  2.2561939346658306
  5.8944015717143667  3.6273937318390117  1.7550538528548754
 40.8330543892273212  4.8940061488189670  3.9637300366467940
 38.9884114991001169  6.4955116986880439  4.1968714786843941
 17.8965862579270087 11.5645835145387270  4.2258141528423288
 19.8451580691906280 13.0738116381915432  3.9710104123766490
 26.8135553302664462 14.0645996660258312  2.3533725148360851
 24.8436226150616974 15.4538463241036030  2.7873880549463830
 40.6046646502238175 31.4234573863806368  4.0654781315178452
 38.6023990811436022 29.9748844572492210  4.2050587734218539
  5.8155234636446300 33.3878731903816188  2.7089687515199272
  3.6574760631147543 34.5880154733089427  2.7206454511551259
 25.0412289442125910 20.8883380842162971  6.5254995517326160
 26.7915595644055635 22.6433742308749508  6.2914292045636184
 15.5471106106241574 22.4773214410105702  5.6030453471238122
 17.4683065787350493 20.9707064694562888  5.4082945257037816
  3.9736043906210017  2.8053702061663977  6.3102717897295921
  5.8426081057434303  4.3703228083681331  6.0166726472341354
 36.4574996393372643  3.8279556920625057  5.4943868022027633
 38.4259311521649991  2.3201314241895932  5.2793996360140492
 17.3984483868735147 15.9281229844422860  5.2738838786030344
 15.4589009995236211 14.3805960637508914  5.3736668317256218
 24.7923753703497916 15.8988022937499984  6.2165206656485914
 26.7180833394532407 14.4316929395828968  5.9034394975031175
 36.5455171301401194 33.4040685082748823  5.2768798025130836
 38.5757215047648714 34.8175403744103775  5.3329060346414359
  3.1980951477205997 30.3529201740158356  3.6755898820843558
  1.4450209074052907 32.0203030784580491  4.0824596371079158
 22.2901655505242999 21.0358769850996268  1.2855597992244905
 19.9358498656039913 20.9876268881315120  1.9804773067952448
  1.3490882839087635  2.4880966639328159  2.0038829632107529
 40.8931348200245210  2.4701920832184538  2.6945462847774939
 20.0546386865066602 15.3679817627123647  2.4629086155091966
 22.3845232930004698 15.3563230042617551  1.6361221817827505
 40.9018032439503543 33.7624630333163651  2.5839634193472185
  1.3010166610425506 33.8599885362841064  1.7438446088313537
 22.3692584786434594 19.6222743157943178  1.4479544305576313
 20.0294685319262555 19.6164838423756862  2.3218904710280435
  1.3082345150237107  1.0965750932340808  1.7689218989420488
 40.8930913693114135  1.0449708074873323  2.6687542435963056
 20.0913406662625853 16.7856279269388651  2.5243510517378849
 22.3974981785052556 16.7715800666353445  1.5895413002483851
 40.8556525684166445 35.1826949172193153  2.6673377098859552
  1.2074740820852676 35.2730680580777261  1.6726528760718786
 23.5044967663371125 18.8711451078146517  1.0325317524030948
 19.0097503135677677 18.9064544111211816  3.0179697220007835
  2.3304873123035481  0.4053308458431288  1.0609069835594123
 39.8196691361408739  0.2547641565791219  3.1602162210113369
 19.0355205339397067 17.5457203606458592  3.1028540539829681
 23.5091673423642433 17.5058342907793367  1.0795243957777940
 39.7360429565061324 35.8990706723273192  3.1834443723237165
  2.2010699357783508 36.0527660218580976  1.0146382477873592
 26.5404501474495724 24.9753992948099643  0.9728179039657430
 15.6206835299320463 24.6801785675092908  3.0994236786763465
  5.7825877646412618  6.0816990694782564  0.9549659150421460
 36.3840774028803153  6.1528890550068480  3.0305629687205684
 15.3290989792406265 11.9962382362236770  2.9813722851665778
 27.0455063292512854 11.9513187075720477  0.8520266289202132
 36.0702819472993284 30.5728754269848473  3.0046235827625720
  6.3887051819755722 31.0681744154065775  1.4066782441341106
 26.6880865153884841 26.2787966983406882  0.5799404127598431
 15.4794235428071243 25.9957135979861782  3.4590042893972535
  6.0288649454918808  7.3775123283314699  0.5754248578273078
 36.1183425044983295  7.4231401863151669  3.4635764684091774
 15.0390639110594186 10.6937892946222934  3.2926152198837202
 27.2887304703883125 10.6789806230131763  0.3924369627820115
 35.7164264093794515 29.2948113541341257  3.3319951787616988
  6.5884086074788346 29.7135616322275773  1.2888299935032903
 27.9921589639305353 26.9242211168234356  0.8210093207386205
 14.1867148171040807 26.6555257526404503  3.1729862997988327
  7.3702984776642193  7.9599151719996621  0.8338755579501531
 34.7971340606536543  8.0041931311586723  3.1786859426873728
 13.7174103313322888 10.1220480689091303  2.9567193826673583
 28.5977228237846219 10.0839542065309349  0.7210993521696490
 34.3671620589594866 28.8076768157180361  2.9943151824840246
  7.9146174946469916 29.0894857813095236  1.3415922055136111
 28.1513907000048107 28.2267463895719999  1.3160390313217467
 14.1066395610838065 27.9825394827983764  2.7210690991330191
  7.5476657221417147  9.3098852337487035  1.1809522285659091
 34.6055788385500520  9.3607937449881007  2.8774544871062222
 13.5534824245928096  8.7962649204449210  2.5192289640344327
 28.7485738862650493  8.7399140018596366  1.0971120294241932
 34.1454240635550121 27.5038157491802053  2.5285270001641273
  8.0670719762618717 27.7327813122601121  1.6795224661816441
 29.4189247725843721 28.6549417380468761  1.6962556697975855
 12.8821202229577612 28.4786922425360451  2.2970900670582348
  8.8057465181660906  9.7610833845007914  1.5611982549045065
 33.3654882896410001  9.7827302635800226  2.4236282628126542
 12.3049788502617581  8.3693574764021434  2.0854942818773923
 29.9752101529635731  8.3083421651905915  1.5783511871875082
 32.8851510709501937 27.1554697688250215  2.0704569860916000
  9.3285424643544061 27.2273476860721466  1.9301772656499365
 30.5078510501100091 27.7732507339548604  1.5825902211899321
 11.7527769570248939 27.6473544689823498  2.3466993813216774
  9.8856131757329813  8.8647070094435190  1.5878937262609776
 32.3324137153504196  8.8428811039216040  2.2691649199363528
 11.2220523067503670  9.2661488040185986  2.0895923779758867
 31.0358600029102973  9.2254908934282032  1.6793540178641635
 31.8538406524140534 28.1105465151039660  2.0927928079503038
 10.4319014807709536 28.0942391597956984  1.8715475992580142
 29.1661447558912101 26.1672756874258674  0.6328978323941362
 12.9780082958832157 25.9426894350376855  3.2830279335756773
  8.5414010201251127  7.1720064421651477  0.7832862162322139
 33.6603949626407726  7.1701283259432742  3.1113439197219743
 12.5511450351464919 10.9143946413485171  3.0034177178635155
 29.7550352208159659 10.8880817044383882  0.7455335784987227
 33.2507788783759395 29.6660357041115752  3.0487437420821997
  9.1028906350639929 29.8197735267643793  1.1254349619979647
 25.6433541051297169 27.0227545250601970 -0.0243274829094003
 16.4375264103794656 26.8646957188907329  4.0576951637362200
  5.5210225685143310  8.1073150615347380  7.8214696827403500
 37.0991998639492024  8.2097637215943902  4.1228245480247026
 16.0164174962123980  9.8476077067341485  3.8834258069954912
 26.7941402006575586  9.6368066875898428  7.5951339732837129
 36.6373133724395785 28.3828764974780761  3.9136614304296975
  5.4918558473399175 28.8062831490501203  1.3742576471191366
 21.0268386767620683 21.6035192198479855  1.3856065797395676
  0.2040898058589753  3.1084343186054437  2.4976699322993361
 21.2061119893431282 14.7164854242763337  2.0174102971368577
  0.1756009489827870 33.1411730296655236  2.1605948332060438
 21.2137493939764745 18.9125982055946977  1.9238466702009420
  0.1651492877887274  0.3623037085019263  2.2200913055332809
 21.2366604441816129 17.4864557153343227  2.0222104368946163
  0.0563584182806880 35.9397029341017529  2.1943996278860420
 22.3609723083843654 21.1924697804053928  5.7888709105503597
 19.9717212706214404 21.2869952557530944  6.3695040612376213
  1.4404738003725124  3.0018757432002925  5.4360738827791133
 40.9948638606586471  2.8435400594259805  6.1342361311073326
 19.8883456345775258 15.5554991492781429  6.2532529048849144
 22.2156499229148245 15.5330666216209767  5.4626433958091924
 41.0553016739403631 34.2167140752302785  6.2690687369863394
  1.5071148498279334 34.2436072136144318  5.5679547518395509
 22.2954641175077910 19.7988821406830695  5.5758182925206565
 19.9216964137742458 19.8541374525682919  6.3500524429418945
  1.5453617737286287  1.5693211918144667  5.4564441935276733
 41.1148396600089825  1.4478530661344382  6.3041901984017867
 19.8979754124865700 16.9765135199696964  6.3394023519781086
 22.2266049578971874 16.9555957894576110  5.4508832867659036
 41.0724595577882994 35.6257589114990338  6.3642468316554472
  1.4908502830181201 35.6742068882055179  5.5034833053024625
 23.3454397714797786 19.0610916637869217  4.9620558133132544
 18.8031913312571142 19.1131416435754318  6.8258016957274252
  2.6840823901183994  0.8365949510495331  4.9967067319235445
 40.1061709327959548  0.6810925211005614  6.9446050125738479
 18.8104249382245463 17.7446033161781109  6.8459145948937756
 23.3108507778228500 17.6995940285340154  4.8986105303587841
 40.0061281203777241 36.3323708166543753  6.9873095020375171
  2.5702654060912047 36.4725934016847901  5.0142451228168765
 26.7378449253216424 24.8768929106357284  4.9626153094619534
 15.3316002825909283 24.7548024315135180  6.7959524249838470
  5.8609452055042599  6.6920093224724679  4.8003362104055434
 36.2827847673526662  6.1322572519996275  6.7806705211298715
 15.2932211715633084 12.0598903629696057  6.6859740993313865
 26.9041714520083097 12.1450473500994640  4.6861123540543552
 36.1838969818842955 30.9989535107032808  6.4783142543691561
  5.8242262286993531 30.4763418839340794  4.7934576405278992
 26.9144256662568040 26.1646862353548926  4.5331049679564153
 14.9896795285295852 26.0323352763922671  7.1617022412176059
  6.0848605896223500  7.9631535858616003  4.3400792561382158
 36.0118889402749502  7.3923318906509525  7.2510741932968479
 15.0707733707848170 10.7906994101793057  7.1527633212557609
 27.2081344469560520 10.8756303994504027  4.2629686587997497
 35.8460610668822781 29.7638941898418352  6.9732819964425676
  5.8504653488807090 29.0974719006791744  4.8892591989520913
 28.2159296447089929 26.8159839962266489  4.7978714189819600
 13.6050342508787274 26.4897314537617952  6.9147964670384923
  7.4203101497236785  8.5179251656003689  4.6201889189831666
 34.7043351766190611  7.9947164358479768  6.9192188535745673
 13.7310084572285049 10.2396790672318279  6.9097051122370505
 28.5277954454667544 10.3054974264117387  4.6028998738468720
 34.5032406157457672 29.2111195863098700  6.6898156921058627
  7.1191398783140540 28.3931329335859957  5.1002930692418476
 28.3113717122091906 28.1485677586063332  5.2259535853092922
 13.3425880283241671 27.7736961007128258  6.4135679617051000
  7.6051805045622940  9.8099540703464072  5.1276058453810656
 34.5707668469632097  9.3572011232782071  6.6079099792147353
 13.5231602525362735  8.9294540224831493  6.4578847024451065
 28.6840578720482178  8.9398241978293704  4.8900312944087787
 34.3328047473388764 27.8447824102498167  6.4121485647846566
  7.2506599662476443 27.2000369326822948  5.8289113649619866
 29.5477446873672740 28.6543508168179031  5.5997488856067088
 12.0474192082831379 28.1105273016359476  6.0536374186049926
  8.8628995610881720 10.1683547185156282  5.5850211508709044
 33.3468708376615837  9.8326216075676385  6.1665079685536837
 12.2563248976208499  8.5720251428561323  6.0300479842227794
 29.9076652250274648  8.4770143854135540  5.3431021308066988
 33.0801224967698957 27.3805506021764771  6.0528979221739601
  8.5219998641027797 26.7446649040568296  6.1645454265443078
 30.6756484078882643 27.8207794641425110  5.5400941032064219
 11.0184419063579462 27.1684659237665649  6.2191143005948559
  9.9050144806328824  9.2307200447500222  5.5134224861031091
 32.2695443468856027  8.9413643093225268  6.0422306452392229
 11.2273554119916010  9.5274870258482860  6.0732005182899824
 30.9691926625481493  9.3825629375981840  5.5010509280639592
 32.0056860876596048 28.2811315437921884  5.9930659862853224
  9.6447870856414681 27.5051099262562850  5.7968931329148639
 29.4202128458341612 26.0931917822846273  4.6848923156095577
 12.4917919822964372 25.6490444724145519  7.1185887768973819
  8.5560760773796236  7.7010188579178882  4.4773099575011939
 33.5396158285219315  7.2060967426723384  6.8548550500286121
 12.6072643099848580 11.0744322055752580  7.0432228368171792
 29.6797188193665455 11.1119200452176141  4.7046519375575775
 33.3485019942193688 30.0140852579233517  6.6902831470112751
  8.3151983945485632 29.0082592267396961  4.6728087610381044
 25.9431622142219851 26.9936704017764875  3.9100748199193069
 15.8676739260479316 27.0412691102165361  7.6468563263044755
  5.2055625547472779  8.8878813697533108  3.7133801992430890
 36.4587099448392706  8.4335270519656689  0.1170771863057305
 15.9572128930838613  9.8722021794411035  7.7432971218641145
 26.3426768837083500  9.9688012791247189  3.5883001722688626
 36.2175575513404624 29.0058718685566994 -0.1738374932531506
  4.5893056172758087 28.5191698535438718  5.1494719817204810
 21.2218695835490330 21.8617448203427820  6.2120092430858902
  0.1401708349908434  3.5592451776288327  5.7081179815956293
 21.0360609441969686 14.8943570218326844  5.8381813082797427
  0.3243738351654207 33.5685248845793325  5.9345338711510625
 21.0952454222627743 19.1134883920366043  5.9588580267620284
  0.4131734095559923  0.7968142833447563  5.8943628915581954
 21.0743744618558715 17.6787458626264282  5.9206206781669479
  0.3114999418732835 36.3681464507940007  5.9233275343780845
 23.1611845138510795 23.2912223970008760  0.5097446251538519
 23.3964724056102682 22.0010981246486175  1.1193637512269747
 24.6347225637800129 21.8170363401783192  1.7764347088739725
 25.6747361511249110 22.8328825211895712  1.6578981930947048
 25.4438055380592019 24.0476438928671357  0.9424983460358389
 24.1573062822796381 24.2656390378165803  0.4035792190974848
 16.4580330389914486 22.4548227475667197  2.5136135301520293
 16.7156936529621660 23.7466941360597303  3.0200601251580785
 18.0844726014405843 24.0728624263720796  3.2112113904655701
 19.1057757237000274 23.2114056424495026  2.7065183058209370
 18.8272033064041224 21.8819374664106689  2.3035969338267446
 17.4644817756028559 21.5408860911680584  2.2292082256412509
  3.8497117360879738  2.9977407539723355  1.8283757600712767
  2.4941484740064781  3.3379966546700870  1.6693583346232155
  2.2432491484433554  4.6236280148904338  1.1518708072535142
  3.2750718613990646  5.5218174042255592  0.7319377519265623
  4.6334659752269252  5.2048352325296063  1.0098050993473087
  4.8593980377139108  3.9068538019242287  1.5377036673764741
 39.8783356377868756  4.6506513880156302  3.4978538163464941
 39.7271612062510826  3.3690927762621388  2.8686235009151226
 38.4803507719985447  3.1196077226030741  2.2350130279291300
 37.3922045606101605  4.0855276327761709  2.3416792751479463
 37.5426809463544302  5.3030464146227771  3.0741378792837959
 38.8261154603084222  5.5812376855987660  3.6223063103708664
 17.7962626551104925 12.4667470194291461  3.6193359468233677
 16.5267709872315187 12.8037539919189740  3.0582721956537586
 16.4314091211940898 14.0455877668503337  2.3553875595003255
 17.5920147192707326 14.9220371382417110  2.1959474773372518
 18.8403824365118844 14.5663406146168075  2.7706085034980714
 18.9049357689477233 13.3310276656073032  3.4805154250596955
 25.9150780315246259 13.8899877136248691  1.7581281505941739
 25.9038880176492903 12.8187290796651432  0.8673205547711027
 24.6883474682476312 12.6020413133539222  0.0786814031038313
 23.5386400467270320 13.5469553974091887  0.2961072564029772
 23.5843509782283647 14.5495908053293572  1.2992841644052955
 24.7811626399141360 14.6897191651447230  2.0121625553345552
 39.7009021955282009 31.7127603570770269  3.5260080107146967
 39.6866939815038791 32.9579699309873035  2.8215048656679458
 38.4735121972671337 33.3547787431526856  2.1920274003550761
 37.2735500706211482 32.5439505641874192  2.3361207927841239
 37.3113639875831780 31.3063556449996980  3.0553847821497997
 38.5511503389234136 30.9001204352340828  3.6279348124909827
  4.9974245852335022 33.0348008080036024  2.0806894802201414
  5.1350103475952693 31.7844761586502500  1.3784092572543143
  4.0107764466510458 31.3176859672884724  0.6265817510602556
  2.7097803853604936 31.9996178191312914  0.6995618858054482
  2.5875022847993088 33.1724787929955554  1.4927893857232091
  3.7567708590665676 33.6847085163797217  2.1211159834736022
 24.8427852830927662 21.7804646225228176  5.9304580359455521
 23.5084075603737084 22.0638787448401281  5.5341679781363240
 23.2513696485607433 23.3049854434409269  4.9207611975479715
 24.3235261208764335 24.1304713384048348  4.4101265769483629
 25.6231002493966749 23.9647528081666152  5.0152009405535889
 25.8352348111663588 22.7642202581502779  5.7735965440683223
 16.4941675618038204 22.7515744712250267  6.0729751738655962
 16.5514048701475289 23.9905814735389065  6.7567064725168668
 17.7920410069363868 24.3456706004426806  7.3658158121824542
 18.9857424414928708 23.5467189837306563  7.1032706813494011
 18.8464505502339641 22.2406114015861007  6.4902564842477943
 17.5745015593708338 21.9025017561365161  5.9631399574818369
  3.8274587196520757  3.7179336152837652  5.7324066583668838
  2.5270923546204940  3.9909269651192085  5.2267133862829320
  2.3181146215573745  5.2572427570093572  4.5382589538603479
  3.4639306268700758  6.1285529486934127  4.3103619328543443
  4.7228250258471096  5.8269671512597467  4.8863595816460990
  4.8713266994335207  4.6035960353098089  5.5757328764798144
 37.3815224773687405  4.0683729417836183  6.0255007322556224
 37.4492342819875645  5.2872747962623103  6.7629309107278086
 38.6866097674507188  5.5953690101048048  7.4124596249215253
 39.8827866748162450  4.8486284339980532  7.0646978362667188
 39.7745083135554722  3.6177342406670090  6.3805819958577290
 38.4962687687022864  3.2148239271643879  5.8970375837116809
 17.4620050759609704 15.0255082157682338  5.8800871855373193
 18.7153271982222584 14.6918954177835595  6.4752621190770645
 18.8049903358049590 13.4576978419583178  7.1690400902073321
 17.6519073223842398 12.6148310013966771  7.3406462323026496
 16.4361757206730061 12.9250480335575286  6.6652606034575355
 16.3646201546469712 14.1500609836990563  5.9385342833401742
 24.6680229787428082 14.9961187393315161  5.6176095127142460
 23.3821308159109797 14.6861719586939827  5.1412723829029199
 23.2445808024392093 13.4278231480095993  4.4720465975776671
 24.4491024670083519 12.6340337319801801  4.0990043420564151
 25.7210322974957499 12.9634244314594582  4.6910190872641246
 25.7706162604479481 14.1591472951426329  5.4335797139926383
 37.4181537229442611 33.0775166819688664  5.8469311108429789
 37.3953296371416641 31.7930525415468139  6.5003003027060160
 38.5801819109893742 31.3844440964700837  7.1711284883083106
 39.8077741652964576 32.1738069469978072  7.1006118122601958
 39.8154884918672067 33.4178519394513529  6.4139737537280741
 38.5897589136607380 33.8568846266236250  5.8393994593994281
  3.4004904937604810 31.1857938292956227  4.3473734962874646
  4.7296244889792076 31.3975969009997335  4.8306126246339796
  5.0013109496159389 32.5958875722003825  5.5562944684470423
  3.9468576074498678 33.5865548922567356  5.7769614338094248
  2.6581736373346905 33.3720309929989583  5.2452817005994810
  2.4247170496270032 32.1610157883326906  4.5392649606676638
 30.3769296867336394 26.5578520731761429  1.0099325806790804
 11.8016602272201201 26.4065115138492601  2.8792623577115224
  9.7497678584633594  7.5919861659797112  1.1524707518194266
 32.4736474150239616  7.5581231073766961  2.6607148228158315
 11.3524330347145561 10.5187343029775189  2.5780950738739423
 30.9294710108820254 10.4909801460762075  1.2207133421300380
 32.0356750812625393 29.3433215523146806  2.6101764388666826
 10.3191247468001208 29.3567106652781966  1.4070350247145758
 25.2654082049263096 27.7863141946294050  3.3775286696755211
 16.0318802185804650 28.1505213557157994  0.1707664402333675
  4.6929686549463980  9.8083034370646143  3.1989479207137248
 36.9884510582523660  9.2865482196144296  0.7198136680311357
 16.0730246296803791  9.1305756887922982  0.4441002560006823
 25.7737289753860352  9.1128842520527122  3.0274433288025517
 36.6059169041823083 28.0998745044230418  0.5042873654526301
  3.4730472783629085 28.3030939828004904  5.4715205713822899
 30.6090967749404506 26.5630771201659037  5.0513474463325432
 11.2385598550645067 25.9632753887997545  6.7839468935613176
  9.7635597480359895  8.0278328746406267  4.9207175646312482
 32.3642307620033947  7.6489494815662091  6.4229287895298111
 11.3927005589644690 10.7442009186303302  6.6298179265852113
 30.8580223307441628 10.6810974936804097  5.1455046162890250
 32.1382446404259738 29.5745850410809190  6.3533103328013141
  9.5275040336930523 28.6079710014970381  5.0266159359891649
 25.2034177365437806 27.4456486251134919  7.2871121560623688
 17.0591155077875030 27.7154059678543838  4.5695407319452119
  4.8997637651773687  8.9305670595922422  7.2683180101874161
 37.9205860124495473  8.8261862112436340  4.6868508436839411
 16.8388641038545579  9.1874232608276429  4.3943737307431414
 26.1978368409516236  8.7746361086966100  7.0724948054784962
 37.3908849521259370 27.6439651930800956  4.4228121319798310
  4.6714492546078059 27.9985683233651059  1.5909971220939800
 24.8644192634986929 20.7915762834008468  2.5972884320973297
 26.7888259350199540 22.6401912398837268  2.3460508742001700
 18.5533286696039035 25.2673766459273565  3.6509119639674372
 20.3329226066349520 23.8934545187657079  2.6506373003742829
  0.9813447526341684  5.1730569276927296  1.0539501953682044
  2.7832361704523390  6.6853016993734737  0.2654118952403083
 38.2701912624261169  2.0866786484557021  1.4305689902894760
 36.2967500909637337  3.8401886556079261  1.6405860236032905
 15.3293131630627766 14.3830964453122956  1.7038907560619510
 17.4461311528296577 15.9748666336604543  1.4067291948297642
 24.9612624088516704 11.5220073429873384  7.1020129748730811
 22.9175765655092256 13.1846869228350929  7.4105121887274530
 38.3931078294352659 34.4092044197923173  1.3977379632862668
 36.1967368564172389 32.9339201320867900  1.6801489708141522
  4.5135178231914672 30.1397427102528184  7.6674519061729169
  1.7373080702627453 31.4761706869408862  0.0017009256210772
 22.0239626954706793 23.6982134151701587  4.5022072497665375
 24.0267608221837001 24.9298767679636555  3.4299551289031758
 17.4830401857747155 25.4821826951904065  0.3833293177031214
 20.1064039669917065 23.9977177019037704  7.6840641351397059
  1.1928324974579818  5.6319553044433306  3.9034078318122001
  3.3100849707013484  7.1415074347718406  3.4934317214026245
 38.3763886837870700  6.6640516602795810  0.4902758463323600
 41.0343776359769592  5.3094481961898605  7.5905192562789976
 19.8990530793450517 12.9944071414629168  7.8038019805041667
 17.3342833460055843 11.7528779586135030  0.2791461869959805
 22.1217824432917425 12.8902109681676151  4.0950989110570779
 24.2484148307626697 11.6598319279823226  3.2825259461674894
 38.1801440452815157 30.4748314471046342  0.0680849608674817
 40.8349148418337435 31.7136990539656409  7.7854093413347218
  6.1478663813898207 32.7758355969137583  6.1890705369511059
  4.2493488341882877 34.5903768786187342  6.5934091334633944
 26.0474421999056176 21.6536242393916787  3.8175632897841147
 20.0590989019978316 24.1696656310765761  4.7218800141718491
  1.6331194570274250  5.5390214429546480  7.0157535318374515
 37.1204725808222307  2.9625195321996856  0.1483838846026739
 16.1366666460564225 15.2567250069377298  0.1960767229407745
 21.5461415195319539 11.9476689061092927  7.7541748471023384
 37.0398434766161699 33.8141090829037054  0.1784457804127494
  2.9596093320348160 30.1196809237146290  6.5106482231210459
 22.4083312888929669 24.0053578773489811  2.5793802728328581
 19.0765575295780572 25.2164803235227843  1.4596471490477738
  1.9130009861134882  6.6235136673779182  2.2711625685280041
 39.8577233687424055  5.8738757193336006  1.4985842333631505
 18.8198050799772680 11.9343973506405554  1.5253722976658743
 22.3395227653188400 11.5063728822811608  2.6447222053555310
 39.5284897463238210 30.9192603779910051  1.3687843324003333