# opt freq MP2/6-311+g(d,p) nosymm counterpoise=3

one_3_frag_2

0 1 0 1 0 1 0 1
 C(Fragment=1)   -1   -0.03214500    1.38042200    0.05303000
 C(Fragment=1)   -1   -1.23749200    0.70045800   -0.00786100
 C(Fragment=1)   -1   -1.23752400   -0.70037300   -0.06428700
 C(Fragment=1)   -1   -0.02413600   -1.40145300   -0.02709300
 C(Fragment=1)   -1    1.19763700   -0.71015000    0.01725300
 C(Fragment=1)   -1    1.20908000    0.74872300   -0.01850200
 O(Fragment=1)   -1    2.37447200    1.39927600    0.02685200
 O(Fragment=1)   -1    2.38026200   -1.40443800   -0.00256900
 H(Fragment=1)   -1   -2.17586300   -1.24909500    0.00000000
 H(Fragment=1)   -1   -2.17582700    1.24921700    0.00000000
 Mg(Fragment=1)  -1    3.63386500   -0.01275100   -0.04006000
 H(Fragment=1)   -1    0.00115000    2.48712900   -0.00203300
 H(Fragment=1)   -1    0.00093800   -2.48722600    0.06527000
 H(Fragment=2)    0    5.84243800    0.01386600    0.41936200
 H(Fragment=2)    0    5.64452800    0.27119400    1.07086500
 H(Fragment=3)    0    5.08932200    1.61002500   -1.29871100
 H(Fragment=3)    0    4.41021200    1.90019400   -1.18699800



