# opt freq MP2/6-311+g(d,p) nosymm counterpoise=3 

two_3_frag

0 1 0 1 0 1 0 1
 C(Fragment=1)   -1    0.01266300    1.39677400    0.00000000
 C(Fragment=1)   -1    1.23751700    0.71702800    0.00000000
 C(Fragment=1)   -1    1.23752600   -0.71621400    0.00000000
 C(Fragment=1)   -1    0.01292700   -1.39651600    0.00000000
 C(Fragment=1)   -1   -1.21168600   -0.71675400    0.00000000
 C(Fragment=1)   -1   -1.21169700    0.71641000    0.00000000
 O(Fragment=1)   -1   -2.39639500    1.43378000    0.00000000
 O(Fragment=1)   -1   -2.39636500   -1.43412500    0.00000000
 O(Fragment=1)   -1    2.42357900   -1.42066700    0.00000000
 O(Fragment=1)   -1    2.42379100    1.42117100    0.00000000
 Mg(Fragment=1)  -1   -3.59434100   -0.00015000    0.00000100
 Mg(Fragment=1)  -1    3.63965700    0.00000400    0.00000000
 H(Fragment=1)   -1    0.01157700    2.48375200    0.00000000
 H(Fragment=1)   -1    0.01223900   -2.48348700    0.00000000
 H(Fragment=2)    0    5.83941500   -0.00097600    0.37277400
 H(Fragment=2)    0    5.83908500    0.00106700   -0.37452700
 H(Fragment=3)    0   -5.79758100    0.37204400   -0.00049300
 H(Fragment=3)    0   -5.79703800   -0.37504900   -0.00051500









