# opt freq MP2/6-311+g(d,p) nosymm counterpoise=3

two_3_frag_2

0 1 0 1 0 1 0 1
 C(Fragment=1)   -1    0.01266300    1.39677300   -0.00023300
 C(Fragment=1)   -1    1.23751700    0.71702900    0.00001000
 C(Fragment=1)   -1    1.23752600   -0.71621300    0.00002500
 C(Fragment=1)   -1    0.01292700   -1.39651600   -0.00000100
 C(Fragment=1)   -1   -1.21168600   -0.71675400   -0.00001000
 C(Fragment=1)   -1   -1.21169700    0.71641000    0.00010300
 O(Fragment=1)   -1   -2.39639500    1.43378000    0.00000000
 O(Fragment=1)   -1   -2.39636500   -1.43412500    0.00000000
 O(Fragment=1)   -1    2.42357900   -1.42066700    0.00004100
 O(Fragment=1)   -1    2.42379100    1.42117000    0.00028900
 Mg(Fragment=1)  -1   -3.59434100   -0.00015000    0.00000100
 Mg(Fragment=1)  -1    3.63965800    0.00000400   -0.00020000
 H(Fragment=1)   -1    0.01157700    2.48375200   -0.00003200
 H(Fragment=1)   -1    0.01223900   -2.48348700    0.00000800
 H(Fragment=2)    0    5.52678900   -1.33842000    0.00174500
 H(Fragment=2)    0    4.94119900   -1.80440100    0.00198400
 H(Fragment=3)    0    5.52673800    1.33832600    0.00145900
 H(Fragment=3)    0    4.94111400    1.80427300    0.00184100








