H  C  N  O  Mg                          
    1.000000000000000     
    41.9087000000000032    0.0000000000000000    0.0000000000000000
    -0.1534031154544763   37.0075820595478646    0.0000000000000000
     0.4160014280560045   -0.1652947348400154    7.8554862227229156
   H    C    N    O    Mg
    88   288    32    64    32
Direct
  0.5653002276694420  0.5415948436955790  0.0020485784999118
  0.4357678015071439  0.5306847172540299  0.5412729005628228
  0.0745072443393275  0.0279445702858851  0.0119010154000557
  0.9338603586025375  0.0473737961006112  0.4700917353712770
  0.4332125637856027  0.4651482727105089  0.4948303822750314
  0.5642483640907698  0.4756924660035760  0.9650806876533177
  0.9311293276622411  0.9821820067724770  0.5064881168687053
  0.0725436898523928  0.9629741943320528  0.0514347120255020
  0.6694227350879591  0.6445722796358828  0.1174376922362888
  0.3466436332947300  0.6548730979183626  0.1172554818561479
  0.1608125924797108  0.1635264685724930  0.2444207117993493
  0.8423073463285883  0.1571837358032780  0.3649552613498832
  0.3418361734346627  0.3478849307544906  0.4609768639035941
  0.6562028098306729  0.3519951878044510  0.3163069779052833
  0.8303017459413152  0.8612930757541664  0.4029679373820000
  0.1538417623826034  0.8391838130773968  0.0708861901297201
  0.6518713260347426  0.7609166554764504  0.2799463840488302
  0.3333450520636240  0.7737342605599331  0.2076939469529758
  0.1646780167505466  0.2804520918048793  0.2702487954671942
  0.8382585803667092  0.2748203152936105  0.4756746077968544
  0.3494496186187099  0.2297998818389601  0.3469289948788580
  0.6624811365881325  0.2317843972423238  0.1666875860620588
  0.8425957417547931  0.7440470834766406  0.2596730355795756
  0.1536651307942258  0.7239168834536447  0.9790177986302609
  0.7033178169699257  0.7897449538390660  0.3645853479596651
  0.2802030070719392  0.7947354123677749  0.1165647056185890
  0.2187773814387651  0.2985298262633341  0.3691207063190838
  0.7863770729399031  0.2991302899610513  0.3797384117770166
  0.2953967922881937  0.2085147486361330  0.2606403030540395
  0.7155357795963670  0.2066750739458967  0.2411714429404041
  0.7899904307107770  0.7173422174578665  0.1835899005468440
  0.2069364251632639  0.7004041269347240  0.0595696293133629
  0.7087106012400270  0.6781199109581688  0.0167007073111973
  0.2954055356686542  0.6652032774386610  0.2004189226785870
  0.2064183963359474  0.1786365136348895  0.1041178277942478
  0.7962138173712282  0.1683925335758973  0.4483630073012827
  0.3020628741717656  0.3233341030353689  0.5779408429622962
  0.7025332726001472  0.3383435555693523  0.2403665418856054
  0.7895674074366755  0.8303561461460564  0.5205301987826281
  0.1986119402521363  0.8282193986168522  0.9191723935580436
  0.4958614063576282  0.6272157392457574  0.2795370037297437
  0.0055715407834573  0.1270690845448103  0.1620716363780274
  0.5016533126994880  0.3816512412193653  0.2117832401514358
 -0.0049603800404546  0.8823261038225220  0.3167514000297034
  0.5582073270007983  0.5390935191708733  0.4668821117708374
  0.4346342851536500  0.5311568376843385  0.0435188542418081
  0.0779637998497698  0.0168182723280603  0.5276409643233096
  0.9412401612971918  0.0280306997858677  0.0157884126109118
  0.4332436501320384  0.4655366060299372  0.0106076723973204
  0.5600631806675305  0.4724570824272903  0.4492076547267512
  0.9414756879975092  0.9624766318571286  0.0480490765647955
  0.0764035629927240  0.9510263798403030  0.5440746701690237
  0.6635555209094616  0.6416598579546959  0.5565629488338348
  0.3471995476779124  0.6589521774676624  0.6495925649441410
  0.1530471833528863  0.1630755479586233  0.7517552139023255
  0.8431897289034272  0.1383878239254104  0.8294032975017664
  0.3370861143232005  0.3617077912310109  0.9460030902098571
  0.6591193740007747  0.3543409146735600  0.8341926686993036
  0.8356639127618485  0.8467544674752354  0.9452856664794028
  0.1586996813141712  0.8342050753310136  0.5199814897015788
  0.6520900484456927  0.7567286658549351  0.7760240096020231
  0.3346714120618515  0.7769359177188202  0.7101503880723823
  0.1494973473710319  0.2819353681729322  0.7398059711119406
  0.8411947539191981  0.2577219493664634  0.9783843875928280
  0.3342041102790419  0.2401884286238827  0.8825163376096360
  0.6636839787388690  0.2339228349923329  0.6575116627227743
  0.8428095817528040  0.7301421271806920  0.7308421362033755
  0.1568143829418977  0.7180097741118907  0.4903777130511459
  0.7051493867983926  0.7813806987542311  0.8542225395038062
  0.2813449265132390  0.7944378578874336  0.6056243257742761
  0.2016828434669568  0.3070307011814737  0.8323427745132252
  0.7901138679348636  0.2873761742660240  0.9079265564860374
  0.2810087671703081  0.2180461424871000  0.7941374930676399
  0.7150614812394351  0.2037810029600706  0.7213598261580391
  0.7893790405146767  0.7058642158460938  0.6548598602751929
  0.2100978642789375  0.6975920177779498  0.5875903947368426
  0.7035972289611973  0.6723822347757075  0.4908618207680528
  0.2987232862458939  0.6678984403881159  0.7453866232392846
  0.1979642935335187  0.1807952999800435  0.6328988742909762
  0.7958072343645404  0.1550675788708814  0.8776037499755673
  0.2886465245506394  0.3419647147015088  0.0200401927425213
  0.7076057626438097  0.3355858379056613  0.7931988431734506
  0.7926689664929314  0.8178009478423602  0.9978715843704642
  0.2015670530565832  0.8201200318322200  0.3713856092637349
  0.4979027608967392  0.6261274326528747  0.7989154895114364
  0.0068323804847035  0.1111238662892097  0.7093739834872513
  0.5063060466189334  0.3821392847443897  0.8005049774687937
 -0.0022261171383786  0.8684657025183425  0.7254216696600277
  0.5260011927370419  0.5814881354853050  0.2161260247187239
  0.4698571685159696  0.5782398061616429  0.3314016094312635
  0.0327398306786902  0.0782844515537664  0.1481152525454563
  0.9774414653166226  0.0840963095561056  0.2697563752074426
  0.4714049988073441  0.4260440618100499  0.2701107086899578
  0.5276884137654188  0.4279491890066595  0.1540613454788531
  0.9711560927165159  0.9322161683636522  0.3564904814323663
  0.0274399233916427  0.9250104241796443  0.2450839552584055
  0.5247942988968591  0.5433996809204834  0.1844468183852360
  0.4721795238953876  0.5401488921988489  0.3395490863127519
  0.0313817872518337  0.0401157467401406  0.1660148557150004
  0.9775192557513162  0.0465627031063183  0.3095801404573336
  0.4723091447026476  0.4638569263563162  0.3031281529977276
  0.5257506420500303  0.4664958333195890  0.1484579887774553
  0.9746166289845845  0.9704339479734080  0.3547716766087466
  0.0291791091131445  0.9632963993216238  0.2165229413988874
  0.5481526715392065  0.5254748114598544  0.0769948001054719
  0.4498657561456771  0.5182313660144876  0.4344160701577693
  0.0555825259370740  0.0164760503627275  0.0944396533622522
  0.9522333870385702  0.0303663213777616  0.4079175948517778
  0.4494684991453749  0.4815261279045711  0.4156754081972159
  0.5480916478188881  0.4887896692948422  0.0586657872808763
  0.9507146455017856  0.9938796437972758  0.4286610890511959
  0.0544488268503429  0.9799262457461314  0.1176586158708521
  0.6470399103928892  0.6582123341131266  0.0944028607219036
  0.3623012130991602  0.6701283901423627  0.1996154170521778
  0.1418893721035645  0.1773979803753165  0.1812470932936878
  0.8613598690585871  0.1700660620482410  0.4342756718469634
  0.3641627778541635  0.3341452088285200  0.4840986048941366
  0.6373278611283586  0.3372349468518724  0.2535523426692211
  0.8523996840742678  0.8472964722018504  0.4288203309110622
  0.1334978783459577  0.8291265424396025  0.0020974003588431
  0.6469855965476874  0.6954141712732419  0.1108335840749286
  0.3511342343879313  0.7037566443499677  0.2506030103161506
  0.1488660496913949  0.2128784064420756  0.1470213821020145
  0.8533766341156105  0.2035572740269496  0.5013425654739923
  0.3619244897543464  0.2971051856392208  0.4898212691510589
  0.6459784323023071  0.3036934387565303  0.1850768165592311
  0.8505480977934033  0.8100180768209865  0.4198570230949284
  0.1396363333349446  0.7957774971374852  0.9259495563495626
  0.6758942409035255  0.7155775474760232  0.1507246187412224
  0.3196645458406472  0.7172629442818003  0.2024572977851925
  0.1805938600390467  0.2269248284746230  0.1900510780155658
  0.8222915881997389  0.2192286238277237  0.4617083811307295
  0.3308562981212643  0.2798744888640346  0.4599154471462548
  0.6772101479548963  0.2873416245766423  0.2096525116957358
  0.8205588705488801  0.7909128310239627  0.3878692476992744
  0.1710142366457436  0.7788277386484378  0.9527803575778573
  0.6748840727915857  0.7485499565753874  0.2426346321531721
  0.3142329799209554  0.7544376021406400  0.1847920996172798
  0.1849028996598552  0.2619057226653818  0.2572914285355429
  0.8185202547696225  0.2567297551191164  0.4477545922279325
  0.3281084761749488  0.2459958718366208  0.3777405202974700
  0.6819414424381008  0.2497666602856883  0.2016849545915287
  0.8202330080808935  0.7576099269678014  0.2989560529563347
  0.1743960043892829  0.7418383849181137  0.9839099358479843
  0.7031468885108884  0.7645923703966131  0.2900354733134293
  0.2849559859771983  0.7661883562884437  0.1337524185794004
  0.2146481204329126  0.2720137545687832  0.3116197742899857
  0.7900474876547747  0.2702656795571710  0.3943774597668657
  0.2983977422671446  0.2342544157538805  0.3278619924470609
  0.7110654793208674  0.2356768958885149  0.2429950998427784
  0.7913797655346101  0.7426931777131897  0.2558119185109159
  0.2037262125501019  0.7287243204967451  0.0291356432237921
  0.7322012917600480  0.7472137531565699  0.2457343972250304
  0.2609349762576809  0.7407773212978318  0.1018292096607366
  0.2399971928722104  0.2472261092755187  0.2959099980631515
  0.7655006675216370  0.2461339954157097  0.3548117222422902
  0.2716371196432926  0.2566539209211108  0.3589417585996283
  0.7351701003180854  0.2594360302651509  0.2938000221973890
  0.7629548376011370  0.7613569824233490  0.3010691593916189
  0.2297004703258494  0.7525598661425739  0.0423382399396640
  0.7064363272167373  0.7019502147990929  0.1012813516835284
  0.2934112447867044  0.6941325189436658  0.1764787049726348
  0.2080467152274299  0.2050107577870010  0.1689015093962650
  0.7955101411851715  0.1975326340276239  0.4279344225569887
  0.3019999884690891  0.2985341935008054  0.4996352078609007
  0.7038170971386445  0.3088706515392473  0.2473700849507721
  0.7906787037029834  0.8060178411401088  0.4388716279568934
  0.1991288376457689  0.7998309378577065  0.9566829744772409
  0.6180029981704833  0.7154987192004775  0.1177316139583451
  0.3677996233956026  0.7286371139368263  0.3544701425621390
  0.1281851926029660  0.2392483204979581  0.0832056904663526
  0.8729312724074118  0.2276128564362582  0.5941782579156312
  0.3892413938191364  0.2744540099572390  0.4961221568941847
  0.6242053296950401  0.2844630874920330  0.0874249099445616
  0.8784296746610976  0.7885695538819998  0.4026308925321707
  0.1186375891832818  0.7750907471257800  0.8266651354042009
  0.4976050569852653  0.5978966869584625  0.2786420519955907
  0.0048508487590200  0.0982676398151815  0.1897960514596483
  0.4994348229811532  0.4103219361792378  0.2036607300725778
 -0.0019974305648754  0.9112483682032886  0.3083516124799519
  0.4986616879566215  0.5226082417237715  0.2523326175391718
  0.0040244458392609  0.0243315854165926  0.2514578106124996
  0.4988540774850702  0.4840292298870622  0.2338508048235970
  0.0029877392288183  0.9859185561758866  0.2773047844749817
  0.5249671198392361  0.5797140262643921  0.7140083644273710
  0.4699108265108631  0.5779911486566789  0.8390901406286474
  0.0355031110753714  0.0631882335479663  0.6786618674539022
  0.9793309455423235  0.0659128578033576  0.7886888918178373
  0.4722244451688804  0.4244470814183344  0.7948789401597847
  0.5289509274638127  0.4274291844151678  0.6861865529591208
  0.9755389983178653  0.9140465300765709  0.8409759309899799
  0.0315718324434988  0.9104490176291800  0.7216869029461004
  0.5225733799314499  0.5418856250887327  0.6771476528437251
  0.4713269023366338  0.5396530454418357  0.8439459055896533
  0.0346369097565291  0.0250193083353465  0.6837399747713764
  0.9807454337322670  0.0285356911559382  0.8274325377479619
  0.4719300892434522  0.4628072697026231  0.8155446088390514
  0.5247006287842337  0.4647635949573511  0.6576208170066647
  0.9794178449600780  0.9522659517589250  0.8593638327352917
  0.0333353766954539  0.9487538598687353  0.7093651920599785
  0.5436183644311289  0.5232315374194975  0.5575135374827811
  0.4492333954579630  0.5180599291790257  0.9408024556943466
  0.0593306614128243  0.0034761828676627  0.6052498798143494
  0.9580923195004208  0.0114605264135188  0.9392490963675099
  0.4491272706127178  0.4812575784252651  0.9261985849547898
  0.5450445850804222  0.4860729237559051  0.5491276999432780
  0.9579235847470485  0.9748398267648836  0.9563028463236005
  0.0585516946525480  0.9667360728353701  0.6170198149352720
  0.6411591518401182  0.6564698803880460  0.5508552982020598
  0.3637519738393427  0.6738143841336629  0.7283306445076151
  0.1335590397588175  0.1748408885204683  0.6846649801703167
  0.8621069418950830  0.1521073066334630  0.8963986777461960
  0.3567154039831480  0.3445176116713491  0.9816104074826664
  0.6409162184798328  0.3393897148890601  0.7670672729078719
  0.8573214715914438  0.8303287854425729  0.9397793389601469
  0.1377368437268558  0.8226264746398065  0.4622121242170604
  0.6424285257368184  0.6932831660085974  0.5915663211244353
  0.3536469224683298  0.7081024821123085  0.7747591539985436
  0.1384820204080011  0.2104246497157459  0.6444334646940050
  0.8542655567844603  0.1858979130243795  0.9613552484302880
  0.3488186380885039  0.3084450675426497  0.9921073868993585
  0.6499071902629505  0.3056735979951737  0.7012256492960706
  0.8538432493038095  0.7942277800539336  0.8970130085021598
  0.1429539930577669  0.7878431018232063  0.4013674480576065
  0.6726429426980093  0.7111162536194992  0.6319359245494816
  0.3219825363700200  0.7203359591690361  0.7249617926455153
  0.1687415081739543  0.2283475473831149  0.6880632465576528
  0.8235825403086078  0.2036392575246656  0.9285561517637742
  0.3169009278113848  0.2940098387541712  0.9515421604858399
  0.6803676532067441  0.2874190945723197  0.7285778305955758
  0.8228447079189971  0.7774299858101847  0.8631268167900634
  0.1742031481421965  0.7718256210870422  0.4339222156765927
  0.6741216916732353  0.7431100045600081  0.7308328287796966
  0.3159610404795450  0.7568152637697720  0.6929669639033973
  0.1707756998324785  0.2649841895427399  0.7371890513436814
  0.8208166245263075  0.2414879987891844  0.9413042005551289
  0.3134786263613960  0.2580752844492452  0.8924833625625818
  0.6836243752124898  0.2498308750093124  0.7033086656319554
  0.8208926105251941  0.7446258894815846  0.7706783410799377
  0.1775010080126135  0.7360578820653041  0.4864778688899700
  0.7034873502806483  0.7568902479191844  0.7758366528501141
  0.2866590056659042  0.7665707107380690  0.6352600210486513
  0.1996041971764640  0.2789577641523607  0.7895465379192526
  0.7926711792366065  0.2580969556427337  0.9014988707095454
  0.2841007714008449  0.2455244797466584  0.8430625268476726
  0.7118725233703512  0.2328457695792532  0.7387415632840548
  0.7913929014253640  0.7311084387901239  0.7272433257999954
  0.2067215069097631  0.7247595270996531  0.5411039100500910
  0.7316769161543150  0.7383894579980136  0.7235944766503049
  0.2633480814046769  0.7398470446190197  0.6113169294300318
  0.2264439194213669  0.2563287188591463  0.7909486542669342
  0.7671087222075479  0.2368118110325313  0.8490696740302460
  0.2576757624579303  0.2688606123944942  0.8518700618403224
  0.7370290546521469  0.2536235452190369  0.8004374442304063
  0.7635352529774801  0.7506820024263456  0.7752944743073406
  0.2323979880670017  0.7493143962681589  0.5430275488076084
  0.7025050104681858  0.6959054315267615  0.5775591070977218
  0.2962632682486527  0.6960373349236995  0.7079198118862121
  0.1975473598076492  0.2086358685965349  0.6830990446927516
  0.7959987625880163  0.1846633681718271  0.8816137740570250
  0.2884543917717927  0.3145677304343987  0.9645628576723932
  0.7076750914226190  0.3060439682314484  0.7812340312413439
  0.7933096287621429  0.7935770106835539  0.9153123044596944
  0.2021281745152089  0.7932355282465315  0.4268416332037433
  0.6125324583267219  0.7104449126233315  0.6294266673641006
  0.3703773379863758  0.7352023422503009  0.8662553196402770
  0.1164122945993885  0.2320216960234277  0.5606870904533254
  0.8738109530024800  0.2073586083850016  0.0669127841010244
  0.3719336972693493  0.2814293963336151  0.0208880564512536
  0.6283716242440266  0.2877417668232270  0.5968043066280334
  0.8821517596656770  0.7741194924693318  0.8526787561157801
  0.1210128751621110  0.7648901858016626  0.3198870408466125
  0.4979063546971023  0.5968821198268957  0.7878795507908051
  0.0071447836823221  0.0821531240099100  0.7217583418824289
  0.5021830057796470  0.4089274324453812  0.7531402507768694
  0.0021696536256122  0.8953353709900418  0.7730493280007309
  0.4972260598788648  0.5215412350224504  0.7540436035480856
  0.0073855483792604  0.0077213944595696  0.7625184156653833
  0.4978496298083597  0.4828196836620058  0.7412481955192768
  0.0067617340125672  0.9692911262729271  0.7774462159903779
  0.5867247875194617  0.5858325848222395  0.2171586159100191
  0.5564488591071879  0.6009100430315290  0.1713401574491463
  0.5590262066530248  0.6336235217599482  0.0827254766330829
  0.5907036201290125  0.6462637389837520  0.0173099248957354
  0.6197405605798472  0.6350975197386713  0.0851011136674569
  0.6187367406233198  0.6016478510384461  0.1663469717241757
  0.4165777670593056  0.6602208951648699  0.3300836883922190
  0.3895376387332804  0.6490267486183651  0.2428923050161965
  0.3886562091050808  0.6108617944392484  0.1948640639275271
  0.4108857197267269  0.5858726783078886  0.2649676079457920
  0.4388012679707755  0.5975831914600037  0.3452335589623134
  0.4384893433128573  0.6350139772600454  0.3997536169147850
  0.0885965401806008  0.1608413619858749  0.0592275979141727
  0.1150679775610084  0.1539120631096613  0.1575585481071422
  0.1165430731183297  0.1186110087680212  0.2265807785572186
  0.0900831215248130  0.0913645841492467  0.2094623664605631
  0.0624452107111684  0.0994751243425853  0.1208160910330894
  0.0632337676025988  0.1327677142145838  0.0337058786128332
  0.8886818163850388  0.1169851419717848  0.3144764325307410
  0.8901211484080915  0.1493552078315770  0.4108707517567682
  0.9204578571785870  0.1592006824627362  0.4707879691611569
  0.9503371579242897  0.1398912884618136  0.4167616218981133
  0.9494482132351402  0.1079515319398622  0.3155150203652343
  0.9181911035720552  0.0969227507223991  0.2627596395741274
  0.4238356991538608  0.3508207406787525  0.4954150578899877
  0.3910059096452799  0.3580656668132413  0.4624928236316291
  0.3851456859645935  0.3901396144796259  0.3737065259560384
  0.4116042036505856  0.4128547690293741  0.3066165385540685
  0.4443308902931604  0.4029118296039691  0.3241805542500500
  0.4488025009933408  0.3688934463956339  0.3919618123896046
  0.5862568908150350  0.4178802776408812  0.2003284329292090
  0.5561858339413145  0.4042904086626135  0.1498620645282967
  0.5532932828229870  0.3649745921594167  0.1431975791928185
  0.5777043238494987  0.3443907646131756  0.2102139180119748
  0.6088244111275583  0.3578217046478379  0.2428070768531500
  0.6120543088785232  0.3961239669927081  0.2505792738537502
  0.9085459860981497  0.8600802491093796  0.5147468402117493
  0.8796207389370864  0.8706452728253365  0.4430553139080089
  0.8807396286226712  0.9032933702056177  0.3479890311721807
  0.9109941144661070  0.9251056233997091  0.3282466810303278
  0.9400829615917035  0.9141739193878935  0.3978116569453037
  0.9388161689093466  0.8805614770767657  0.4825781335188643
  0.0726987479092146  0.8439564937568712  0.0214800257070484
  0.1060420759945842  0.8522380063946302  0.0374816972357424
  0.1116264880570143  0.8849504241260077  0.1287563965285267
  0.0873514870016747  0.9074111331500693  0.2117008613206364
  0.0537678007428877  0.8995003384697984  0.1925960633795804
  0.0484039922329223  0.8648074968025066  0.1219465248501404
  0.6145157383219095  0.5985535812703840  0.6075834890840224
  0.6134337490618060  0.6343454638204206  0.5420215550617659
  0.5827604449685923  0.6475575768893300  0.4990892478555464
  0.5545873726542825  0.6339763067750300  0.5895485011247408
  0.5545555410871796  0.5994639828289741  0.6644832527014772
  0.5851373070710999  0.5824538019592809  0.6794280572576035
  0.4403930803047592  0.6363868156551573  0.9141284103240467
  0.4401290090885715  0.5992726548899262  0.8545228135611622
  0.4122347858669630  0.5885569996459340  0.7756729897961818
  0.3897683691873189  0.6145882846348011  0.7110693384482689
  0.3905205370366633  0.6519166137837353  0.7662940675989068
  0.4164272987101480  0.6626850639933553  0.8630361178725946
  0.0782254038842724  0.1512357094830492  0.5987884939303472
  0.1090477519952959  0.1481596788754140  0.6583616307130331
  0.1171969972547779  0.1117538253503822  0.7119214662821302
  0.0945134732881055  0.0804811663255111  0.7094964244334017
  0.0643984867982146  0.0851355264738415  0.6438598289003443
  0.0598183164410556  0.1186377627353817  0.5624067038134729
  0.8908287650256596  0.0943977218869470  0.8365914566992799
  0.8914170568721796  0.1314997891867304  0.8889428094369559
  0.9227029018960641  0.1457460254767677  0.9107590257326860
  0.9507440281097996  0.1242435393673170  0.8730145643233718
  0.9500953078249165  0.0876444980707408  0.8203068236133194
  0.9189093401809197  0.0731429133995695  0.7955569813731225
  0.4123115290100085  0.4167666718706761  0.8197270543959309
  0.4438176438816766  0.4026406449230707  0.8357707089976756
  0.4454242017557681  0.3676274362087738  0.8994952230113744
  0.4192638891038247  0.3510541504864786  0.9984699799114960
  0.3868345382648749  0.3637065265054589  0.9708141350303267
  0.3853437121262127  0.3988667216714498  0.9010115973155272
  0.6150144045239415  0.3982792050105656  0.7671168340698362
  0.6123262971324039  0.3598499615534879  0.7488602817610676
  0.5814054277300673  0.3460998537984753  0.7155187339498817
  0.5568489795473384  0.3674377990677329  0.6550981793142314
  0.5590064240072045  0.4063452037761916  0.6740821059203489
  0.5886547162280046  0.4206531904765904  0.7269130969953702
  0.8859697160376886  0.8870254590042115  0.8908137639581307
  0.8863446885817243  0.8509625933576711  0.9450959517573622
  0.9172822867820933  0.8376537539668014  0.9833753426477229
  0.9458470994208718  0.8548295962995534  0.9088099651027483
  0.9462127522115586  0.8926799169221964  0.8787630651555604
  0.9148729353257916  0.9078178011386020  0.8664735286210599
  0.0772003649657022  0.8351331189261789  0.4782278965130851
  0.1103736996211831  0.8449458553197631  0.4998030819576152
  0.1154710173317214  0.8766339342092940  0.6013953671780162
  0.0904787057018801  0.8966956518612388  0.6890214128165312
  0.0577019137820629  0.8864238665281207  0.6645986662787915
  0.0527152405663667  0.8521287061797878  0.5892402960701603
  0.7335876076810932  0.7166554983828001  0.1487729242437807
  0.2651194776180482  0.7051541823180821  0.1276998270206873
  0.2367468239626222  0.2144172794139084  0.2201613227310047
  0.7681747698890381  0.2101033581964752  0.3745709826880961
  0.2736224245736671  0.2879938728266595  0.4491261956523487
  0.7315994608355432  0.2957002386270071  0.2898586946990086
  0.7627712797582100  0.7922375498075586  0.3955113668473431
  0.2272476130596689  0.7877050597798149  0.0004957938055737
  0.5862253824719502  0.7198575946654372  0.6659340154173318
  0.3798660170279735  0.7607097435688471  0.9391155418093745
  0.0995210314778606  0.2511256782050966  0.4900975130422176
  0.8857874942499244  0.2266786714928835  0.1649043475524889
  0.3891471000494456  0.2571993551012920  0.0399110061452047
  0.6094158364819799  0.2757862746371584  0.5057715622384417
  0.9063644335926027  0.7601194609684977  0.8090414466012775
  0.1061972291203969  0.7437731421179292  0.2434250649890368
  0.7307320523695464  0.7084227865200805  0.6227380916644440
  0.2679732255514801  0.7050864623069706  0.6523940904619974
  0.2252197419024830  0.2217040301008587  0.7330330147352844
  0.7688326368213517  0.2002994205918314  0.8425161560317019
  0.2600442557347216  0.3029254220552346  0.9161554625451643
  0.7347914557243589  0.2900077977063992  0.8169300497836367
  0.7648749360639853  0.7812705315516701  0.8717749488249644
  0.2300645620848261  0.7829142167757114  0.4809094240240884
  0.5943252508163034  0.7323527253053546  0.1292873150517800
  0.3790510446257996  0.7507697459598039  0.4416643940671428
  0.1142361394652852  0.2639522730974240  0.0336416794123035
  0.8849678829869403  0.2505129182166405  0.6739329123055036
  0.4114454141325614  0.2553729210783350  0.4977932975162842
  0.6049893800472208  0.2707886404773124  0.0025082368162321
  0.9009493057990768  0.7703508527768830  0.3709963917623664
  0.1046614997050496  0.7563263574198683  0.7343710011701764
  0.5888055630447785  0.5587407846807853  0.3162913651145120
  0.5353034968644145  0.6562861957446763  0.0513698050699361
  0.5910397093971324  0.6694983929367714  0.8994027743435398
  0.6437540745174570  0.5850532167704429  0.2134389662245804
  0.4264093346573596  0.6954003206812350  0.3408918342312471
  0.3688789724301494  0.5968746616433833  0.0889858591557559
  0.4020947864260118  0.5500666246589919  0.2446399954310665
  0.4598752094922228  0.6477589747897660  0.4991882293037362
  0.0848384176119913  0.1909447798076271  0.9836678897980154
  0.1409440115438285  0.1076085854197192  0.3051681020032891
  0.0946254087575670  0.0608184299555040  0.2819957009062508
  0.0415709485945381  0.1421723433325723  0.9328566854563658
  0.8613747659691295  0.1034844417186749  0.2674988114798011
  0.9223920231259040  0.1843048730259345  0.5846948093398627
  0.9761272281954596  0.1538654081970494  0.4916338447464277
  0.9143101994627237  0.0679900485153096  0.1694478682122772
  0.4340692930037221  0.3304929159896945  0.6115966225986530
  0.3560761168482205  0.4001390767920992  0.3381515002425600
  0.4042144903522126  0.4401751057308905  0.2143913073849051
  0.4774743234838963  0.3512473134728417  0.3845134480351139
  0.5938292820315284  0.4544971109175223  0.2088861362162820
  0.5289062792840111  0.3440972242761289  0.0795710400367498
  0.5697579405688010  0.3086214763297243  0.2444679059479649
  0.6384529094840173  0.4127992009013030  0.2960351230999143
  0.9109180159725042  0.8302595005147516  0.5951737300504529
  0.8582103666523880  0.9123178633171865  0.2505824807967269
  0.9091881954060197  0.9509056397680880  0.2200360670477075
  0.9637673263522964  0.8637291354054836  0.5272006023322636
  0.0626320564234683  0.8190348094747132  0.9195673774931163
  0.1432520118679418  0.8976835101971069  0.1345088983664267
  0.0977281169593189  0.9329981633978878  0.3142690857742013
  0.0194353434802420  0.8479420325527594  0.1289269748311001
  0.6407251448506377  0.5790543756612275  0.6041040301436491
  0.5792272844447279  0.6726409043201287  0.3877043257795540
  0.5293252891768333  0.6578879125604161  0.5924463544693105
  0.5881903562146015  0.5516584413933283  0.7579845656621084
  0.4613176710759831  0.6484799776565637  0.0164425924816887
  0.4046006791144112  0.5532775533497951  0.7427354543549805
  0.3696680390493121  0.6016685600309257  0.6037982406562449
  0.4205966972776142  0.6959679820476131  0.9156802227602974
  0.0609313070049144  0.1820505548472655  0.5820900894226193
  0.1436104659268089  0.1057517289380522  0.7837577638081056
  0.1042881295757381  0.0510772945941719  0.7800117617518870
  0.0364808419601352  0.1224191821829858  0.4655184669895402
  0.8623414609445967  0.0741147050788105  0.8430303301263771
  0.9292867944298939  0.1804998111253200  0.9530992614492904
  0.9780933452136498  0.1438096712822539  0.8893919827552731
  0.9140340976172435  0.0399045962459531  0.7405935194252985
  0.4068474751528352  0.4456779261397399  0.7324318500305821
  0.4734207143537874  0.3487550398921182  0.8934371288618104
  0.4280087829696788  0.3280064781756477  0.1086886683101271
  0.3574691844925548  0.4189587182166069  0.9083943427662221
  0.6403394223260337  0.4134268821848986  0.8354736960388397
  0.5732761448670263  0.3102346971193682  0.7450100413719108
  0.5322998406331546  0.3475767520894418  0.5875470451652742
  0.5930658299130689  0.4566403762992345  0.7748799411740017
  0.8587012226941929  0.9054322806792177  0.8599083446478418
  0.9206291888911587  0.8106463917651746  0.0826954569638790
  0.9702980674767558  0.8304686192518113  0.8740194977615728
  0.9092413796728718  0.9420648732420693  0.8201984709490424
  0.0677335813910278  0.8127135068989478  0.3635728794529604
  0.1466743380669895  0.8906042729082490  0.6200278506529736
  0.0985185417274847  0.9226844617429109  0.7965811198147348
  0.0243706181629388  0.8340477276277604  0.5968489276292044
  0.5515379351688168  0.6819752431349420  0.7991482647732298
  0.6344242329133601  0.5499567654689557  0.3950957872267205
  0.3821907368020940  0.5462252873039092  0.0001943825698375
  0.4669116842380382  0.6997172056619808  0.4728274888076470
  0.1417853375876374  0.0537828971680578  0.2722587567778221
  0.0486589477246292  0.1907130720276970  0.8337551616918614
  0.9595676079948020  0.1802634477494147  0.7207804671538407
  0.8710539183678689  0.0696155658996275  0.0861396524694416
  0.3598968430456000  0.4327902634254708  0.1514944637078548
  0.4836147842416038  0.3451948119760747  0.6342792819921035
  0.5640315709604445  0.3061752827792202  0.9901336804686864
  0.6291686050106525  0.4629481667488448  0.3750498806247887
  0.8761521073382214  0.9410224356978711  0.0515924944636662
  0.9554965614263577  0.8158593275659155  0.6377324669172300