H  C  N  O  Mg
 1.0000000000000000
    41.9087000000000032    0.0000000000000000    0.0000000000000000
    -0.1534031154544763   37.0075820595478646    0.0000000000000000
     0.4160014280560045   -0.1652947348400154    7.8554862227229156
 H   C   N   O   Mg 
  88 288  32  64  32
Cartesian
 23.6110743787054957 20.0015719503351512  0.0358493937023183
 18.4210181224772285 19.5555173893970355  4.2806963697096148
  3.1407489562320103  1.0576602890817888  0.0768047880842044
 39.3518782204770901  1.6184892968280979  3.7233552959893066
 18.3048408933782625 17.1374980186412209  3.9418614360004045
 23.9646714260263245 17.3985420455206174  7.6320715837918645
 39.0722951334462181 36.2074800347874728  3.9458953345738057
  2.9078630339490759 35.6375468414338314  0.3533588480755294
 28.0142374475268738 23.8540975510101703  0.9759879714666601
 14.4208907098465708 24.1660689271004117  1.0201366956058942
  6.8503464833601466  5.9800041458660917  1.8437913852232606
 35.4309518321725889  5.7700301004605983  2.8467551557970667
 14.4370375598732998 12.7346610548699157  3.5157310348747397
 27.6443218978361358 12.9511573432147031  2.4760215410404802
 34.8335834240285394 31.8028760078989876  3.0235130567594446
  6.3603573674416856 31.0340448117459040  0.5836957527302344
 27.3277299330274559 28.1270130372210687  2.2177365156480722
 13.9315230476541032 28.5861302909625898  1.6918136881917643
  6.9565471219350874 10.3472322628729181  2.0777039352917734
 35.2559515553671545 10.1031340408852000  3.7022841325553317
 14.7124720725179792  8.4002319884273007  2.7559884535582793
 27.7737203088865670  8.5358565805914335  1.2843929624295991
 35.3059199601001339 27.4987396574714040  2.1249063208011316
  6.3382818886771517 26.7583848466244554 -0.1169443985912058
 29.5296152553137290 29.1747071676856535  2.8632875012090166
 11.6731286163317112 29.4014168686098252  0.9579129907370292
  9.2636449672193599 11.0173507369379617  2.8490674589631397
 33.0170316897132423 10.9718756243840190  2.9517657737689715
 12.4070121859311335  7.6618355122202590  2.0513452448176230
 30.0086171176800747  7.5626202720611939  1.9041254820483859
 33.0926216428777451 26.5377165852296351  1.4185191936334025
  8.6311005531538534 25.9200455745144325  0.5257158920695929
 29.5888409031416799 25.1558845113495835  0.0491828704237237
 12.3240742683343498 24.5827488443178304  1.5928523689051983
  8.6664339827921992  6.5985744406573845  0.8131697404954792
 33.5508039925848465  6.1406161842032114  3.5683684989226405
 12.8436309048371307 11.8645060811719407  4.5342530163089299
 29.5248251548476581 12.4459005092258721  1.8345087491403020
 33.1263839157229896 30.6080972199648258  4.1749523621331619
  8.5414783372399601 30.5038793581318117  7.2774282064479623
 20.7877191104086840 23.1649610874894414  2.1587853845626985
  0.2517200600863723  4.6629450438534672  1.3001158976871896
 20.9857772559508469 14.0083558774270553  1.5637473145779417
  0.0393712230844597 32.6104646004936640  2.7221646318146999
 23.4665084792750385 19.9181146018631345  3.6553382157447714
 18.1795938752220678 19.6084182484630460  0.3900791585334695
  3.4472180023344201  0.5642215557354929  4.1381590772137091
 39.4337816026114965  1.0388205684151792  0.1103341071377388
 18.1763931147842754 17.1890065773506358  0.1352931013840686
 23.5861403560425771 17.4740320576453136  3.4927754218785565
 39.2934509863196340 35.6194042907487756  0.3157923475976495
  3.2045106126048291 35.1251833457262421  4.1775397455280565
 27.9349390456150246 23.6702722301484307  4.2768158701372352
 14.6844510608893408 24.2658334479787605  5.1634258829054760
  6.6840363899846800  5.9446202654005713  5.8671380840493557
 35.6007505736528458  4.9381118096209642  6.6020391406685679
 14.4396338581441714 13.2167173658806831  7.2706010342054395
 27.9457483475945025 12.9515098979901939  6.6407566315816453
 35.2883169417093683 31.1724838622850946  7.3272429304120861
  6.7084385996243965 30.7766975368714171  4.1214608144110381
 27.5532737437819932 27.8753540021098161  6.0664672167543765
 14.1825296258173932 28.6570418989675311  5.6399027250276585
  6.5592100751208671 10.3482707285099984  5.7454486853608513
 35.6336868558187021  9.3788220604128210  7.6550787211491782
 14.3475620467757157  8.7605957249729816  6.8802218482620434
 28.0436510136910826  8.5634508025419507  5.1945849777890869
 35.5453272863761285 26.8926840036153614  5.7459337809144859
  6.6622477681009205 26.4764985485215689  3.8490352145164688
 29.7932265168544355 28.7416125165241283  6.7621875440778885
 11.8998486963911390 29.3270690048270914  4.8327080366872854
  8.7759651524681352 11.2457531389452097  6.5091663373715081
 33.4658488136904140 10.4970678737977341  7.0926553621242663
 12.0717949098636179  7.9462293840270917  6.2327626023240992
 30.2302699545212761  7.4338320460080167  5.6778774624163280
 33.2745315408514486 26.0062626013800724  5.1665822174734126
  8.9354375617562241 25.7217036931129854  4.6288275723807439
 29.6302200333319341 24.7368240638479548  3.9391715612165630
 12.6921950353885062 24.6267673383489729  5.9547579261926380
  8.5396211997456835  6.5802366018483625  5.0264580926802118
 33.6870947396164553  5.6013130298361817  6.8787188719557033
 12.0933479186178729 12.6840835590485561  0.1230695416393336
 29.9633163912738070 12.3099230893148874  6.1715190785405731
 33.5406209349196587 30.1357808298482084  7.7897870164511147
  8.4617786145736904 30.2686264242593275  2.8786327663802989
 21.1473170809867170 23.0271795088447142  6.4455620085568253
  0.5828610541579257  4.0194524735209036  5.6717902679206631
 21.5006068979267795 13.9432619798622621  5.9919563723934939
  0.2797478487874942 32.0199642663081363  5.6521103075304255
 22.0364001204969426 21.4798854418558314  1.6891569686314702
 19.7343669745365702 21.3459360344850815  2.6098698224033452
  1.4070089591397779  2.8801232474701184  1.1878821957541037
 41.0604141029635059  3.0416330087130996  2.1642703200070441
 19.8368666574273185 15.7006340845576471  2.1825801049758562
 22.1317353958175858 15.7865221932247373  1.2780072172340304
 40.7502972301492079 34.4004408517718403  2.7979791404017975
  1.1624947646140622 34.2177267183122424  1.9267036196730434
 21.9858758689631735 20.0687254991252217  1.4602233989077571
 19.8463643578565367 19.9340204091167372  2.6866396936890888
  1.3728057461476777  1.4583956013641668  1.2869715307615892
 41.0888748529164971  1.6406832673698064  2.4497924856797009
 19.8746365633112525 17.0971010142002662  2.4402154120960380
 22.0310185940887635 17.2125689622282145  1.2383278864865939
 40.8304708327260002 35.8136649111418919  2.7338048427352106
  1.1569887254718605 35.6080487293180354  1.6346606046695964
 22.9252062394322529 19.4033267944102761  0.6333100458034262
 18.9658580177171352 19.1037257676411407  3.4423890070076673
  2.3601465574961247  0.6094282749055743  0.7033567987330529
 40.0784859859442051  1.0064414727273572  3.2052326082647307
 18.9526628973364097 17.7447573848895388  3.3093967646371616
 22.9240223149228015 18.0448704863819209  0.5206844112441237
 39.8543414823262552 36.6599147459453576  3.3254156496625935
  2.1611682957281650 36.2559769835384245  0.8590945007125774
 27.0633450286311614 24.3585528030119924  0.7738411971332723
 15.1285843665316122 24.7456933487546422  1.6214235667915096
  6.0118384543019365  6.5182554350725281  1.3904097109704139
 36.2627834777413298  6.2371487947078297  3.3842939925308908
 15.3852261390432119 12.2398302865412649  3.7355418594402874
 26.8197282053702502 12.4527979435236329  1.9584270350864184
 35.7528591707481809 31.2868843036477635  3.3303852002507943
  5.4697534287684499 30.6629517253611645  0.0445049568686581
 27.0577544458873120 25.7325066167260914  0.8900179061412975
 14.6886413171452936 25.9910236638553584  1.9963627826222381
  6.2627757520580056  7.8469082885184527  1.1580201778769459
 35.9523999145777111  7.4688913760693518  3.9091328404447072
 15.3018446139472886 10.8729680098793207  3.8425939717903170
 27.1290851377002973 11.2214883451912790  1.3956746096813257
 35.6599197403922048 29.9083271950576588  3.3576120302823957
  6.1135878018181913 29.2746647695189459  7.3137951871678633
 28.2808901914893553 26.4784276148236870  1.1777650482345130
 13.3552796050405203 26.5028571509278059  1.6176179723745998
  7.6056749753469912  8.3748268270646022  1.4784126322038387
 34.6184242466567156  8.0347698387741939  3.6180859905670606
 13.9865196183712310 10.2492854296926126  3.6210287331540760
 28.4347616131533272 10.5795881347339655  1.5997197546922277
 34.3949172238683616 29.1992926066376945  3.1110501697456683
  7.4407528647919445 28.6497004244214466  7.5208298856376610
 28.2753474837318564 27.6793484532450584  1.9091795423550670
 13.1247978792201607 27.8834842476564759  1.4857702832745732
  7.8060748456814721  9.6647857285736514  1.9889364360859403
 34.4284140180984082  9.4206355053403428  3.4970783007876012
 13.8346469106709229  9.0083956149122013  2.9839590473768927
 28.6101932463326278  9.1847957237169577  1.5563507796994716
 34.3696706101847838 27.9861539382099949  2.4041832349710246
  7.1992851765964305 27.4374917840972650 -0.0873057453493972
 29.4803246089749287 28.2633482067243875  2.2685934890990160
 11.8820968916564507 28.3394992545521660  1.0733638442701861
  9.0694574890230335 10.0379078830205088  2.4143673059025734
 33.2034232357892165  9.9053397371566607  3.0810813379220772
 12.5701521631666058  8.6024364660000661  2.5801473880750421
 29.8375110361545239  8.6390197144132479  1.8981147900819457
 33.1576889363609055 27.4471837164001151  2.0170455800109739
  8.4456656306685947 26.9697300429410980  0.2616252948650514
 30.6757669099020553 27.6275410814844555  1.9003681338074234
 10.8676357050251884 27.4107286062255326  0.8092990174424942
 10.1259179773462620  9.1163990094989273  2.3091647762519760
 32.1732375103640038  9.0008978371499335  2.7812048255042208
 11.4703023264565847  9.4473030122860973  2.8119271795222360
 30.8772782975876900  9.4989561593706231  2.2892693687617838
 31.9776449374738050 28.1256696678264788  2.3623127836260731
  9.5328745298720037 27.8593618355699455  0.3565804721952792
 29.5352506509498554 25.9983920368860204  0.7465075319445543
 12.2426519282210275 25.6599746370942157  1.4037006311534830
  8.7514986510716373  7.5652991542025658  1.3166988785129818
 33.4915777503955709  7.2176449107189731  3.3813185531117576
 12.8022178870837671 10.9556465135129315  3.9226785387153060
 29.5719462918524059 11.3538722843504125  1.8950379152949699
 33.1569702461570728 29.7391180613904389  3.5083204329337732
  8.5999177606831356 29.4350595579523819  7.5571966987566954
 25.8359425657544399 26.4621082467412521  0.9615901513911409
 15.4431179615321135 26.9070027970471628  2.7860267240722263
  5.3217801679379821  8.8414103533031039  0.7174055909144038
 36.8045162313075664  8.3664452410683108  4.6162265908641054
 16.4463731433741565 10.0262879423461566  3.9217318493557820
 26.1856841590871774 10.5328423558210424  0.6166203784314662
 36.8148080375170821 29.0949037653639735  3.2780166471995655
  5.2018140709835752 28.5256312252723347  6.5222771523192549
 20.8690939775828177 22.0802780586077816  2.1752361340821977
  0.2545470797313608  3.5989151568020414  1.5310972234962177
 20.9683366697291795 15.0878669016003588  1.6426250330173591
 -0.0001780741891668 33.6631936046420037  2.5135229542015307
 20.9244421531205163 19.2917593240363878  2.0062630742871770
  0.2623122902721127  0.8420047299135437  1.9490638171597041
 20.9410243433034466 17.8638814464925986  1.8895762752830012
  0.0761723979765235 36.4211307796726302  2.1123310224396366
 22.2112236260330178 21.3488460768336701  5.6508664754770361
 19.9669597825986642 21.2492012649269917  6.6515470912405537
  1.7484511097570012  2.2482301866433922  5.3638861031754725
 41.3346921735998620  2.3302086807180546  6.1928146868797151
 20.1173402615141335 15.5630584958638973  6.2471539781901875
 22.4306631103639162 15.7099652356101753  5.3495134205257724
 41.0592867467878833 33.6793472348390068  6.5598476304303004
  1.4487993770212806 33.5843822082672929  5.6548484211720487
 22.1006116949711675 19.9612021600797434  5.3358805749049418
 20.0356221461831403 19.8257960047090975  6.6685791324154797
  1.7102353358966478  0.8326587641830836  5.3690940397787328
 41.4101981946141251  0.9313513329998653  6.4606876395106179
 20.1148390205084588 16.9773023977514868  6.4463845044441550
 22.2334625308265679 17.1071583531741815  5.1693789702690998
 41.2212116732952580 35.0973269855251644  6.6953604085713900
  1.5188574269370361 35.0085676459161803  5.5447506018542834
 22.9239094331363482 19.3072829611873118  4.3769104090894970
 19.1722105904022406 18.9910620160641912  7.4345805583470943
  2.7092004601070339  0.0393069350857670  4.7413872839653726
 40.5105189389709395  0.2793716859642383  7.3407208239240935
 19.2033173912686905 17.6314350729094897  7.3252944684088650
 23.0098923336744718 17.9338179878802748  4.3049290999943981
 40.3589048986828800 35.9163766963380056  7.4535569495990925
  2.5230592633226196 35.6975014481200787  4.8007434226575274
 27.0018681907994811 24.2373184887615736  4.2717873325862881
 15.4291638461073113 24.8166182519836163  5.7404506179819590
  5.8549188944985460  6.3908427733222881  5.3194889536308052
 36.4398242760848348  5.4537575326641674  7.0724334938213049
 15.2945407316485937 12.6051216371151718  7.5757013339098709
 27.1635019101886961 12.4499572619326262  6.0619126168357074
 36.1878788134100233 30.5516509485873975  7.3778300306932181
  5.8117134826322019 30.3633275292598910  3.6628472914492467
 27.0879938088238319 25.5839323950361752  4.6076942798187632
 15.0300115689222320 26.0840876827265227  6.1003134043362719
  6.0592319635071279  7.7081308380549025  4.9972735538601416
 36.1616231442494183  6.7169381183760146  7.5410835990167762
 14.9982909906764892 11.2678956594221820  7.7171337096154415
 27.5061106542875464 11.2324330962388181  5.4935617377604444
 36.0570600037327793 29.2058130412072288  7.1150222079713066
  6.0095917209643197 29.0857555391030544  3.1828009984568535
 28.3751231559433990 26.2066188221503040  4.9561023989163466
 13.6706894520818487 26.5574736195923151  5.7423376223515481
  7.3368275177317699  8.3548659106811414  5.3878240760218308
 34.8679387707962078  7.3875584435310229  7.2790113637449103
 13.6438839838735984 10.7376601083994725  7.4171325086667599
 28.7886501733039886 10.5357485681831040  5.7082731290108581
 34.7490721755389984 28.6100915195653513  6.8036644334472367
  7.3411501347949581 28.4866788616552391  3.4191203308143487
 28.4642574131748169 27.3702944100983814  5.7385989481770050
 13.3919168391576076 27.9128186284207302  5.5008978756173388
  7.4415967953700894  9.7055637078153776  5.7626221612983128
 34.7630320165829190  8.7871778546860160  7.3666707412893082
 13.4793036985038590  9.4149500293442276  6.9679293399876627
 28.9060075444004383  9.1461180987670865  5.5296691562432025
 34.6398272837359968 27.4196907657664859  6.0687345613833941
  7.5184568856373195 27.1526724153413994  3.8259547597919141
 29.7072391752712939 27.8587372720748760  6.1277874816518745
 12.1388160838941452 28.2898285884041414  5.0547402224508966
  8.6666613819404059 10.2085344714175168  6.1885205478420167
 33.5685910881670821  9.4140786716927156  7.0479330460742418
 12.2248601830350729  8.9575546278114189  6.6060695080291651
 30.1080595350725098  8.5091985585553953  5.8016748954910478
 33.3843757006577491 26.9305886339430636  5.7303034017119172
  8.7680585666343323 26.7327730545366222  4.2618410997331981
 30.8745015529820144 27.1889992141489643  5.7201044500201643
 11.1555167541564053 27.3027910489653536  4.8599129998535044
  9.7881543974743455  9.3644466937886772  6.2244563021321904
 32.4746287361236838  8.6359709897354815  6.6423415036301812
 11.1227362477112059  9.8237315538757617  6.6817204957342300
 31.1936261538743835  9.2707520427359871  6.2643185734255988
 32.2333772790118616 27.6477163810564655  6.1056002305520414
  9.8352553565771679 27.6509852401076088  4.2898168962780518
 29.6102612135970809 25.6231879604230990  4.5808470409674751
 12.5774817067909392 25.6663428470532899  5.6375883792509836
  8.5366537955153259  7.6106560677516990  5.3972995571275009
 33.6947618294355351  6.6962460556774674  6.9094438637041717
 12.4633605499297566 11.5065390267394214  7.5218734835180880
 29.9590894582520448 11.2173926388457019  6.0981027965349304
 33.5306363169038804 29.2301788082661886  7.1735556056600114
  8.5082342231726624 29.2786079455904087  3.3430239717320296
 25.8548120520529352 26.2403214724291374  4.9026713230466443
 15.7811799019604919 27.0715461130058515  6.8065899838861510
  5.1356085783144385  8.5245490675945952  4.2914190974335851
 36.6237947384042215  7.6706062139228326  0.4842689648463997
 15.5244709759816271 10.3978986070046933  0.1464562442452972
 26.5895818289312444 10.6061448927412449  4.6143228245206416
 37.2252800572693374 28.4206184719520287  6.8642427021309951
  5.0555551236524057 28.2558800002312402  2.5394887145566489
 21.1274689892929892 21.9580611625397459  6.2791778098149607
  0.5811716411043362  2.9455416981926290  5.7105465762158012
 21.3271958655243203 14.9981003711260250  5.8342276575753118
  0.2476387674128850 33.0090855585417771  6.0425308838786105
 21.0911571761070569 19.1830500590292807  5.9518609192801506
  0.5893279502362919  0.1719376277222603  5.9602385882675311
 21.1427216866233749 17.7497184517247355  5.8455137079537334
  0.4240986317255055 35.7523445978244823  6.0728085816526081
 24.5855676823218339 21.6527275070160563  1.7175329497939602
 23.2980997984745741 22.2062232391859773  1.3387459782814572
 23.3756288641302135 23.4322285874326042  0.6426162119808184
 24.6772720730862680 23.9278635619477598  0.1395795578767147
 25.9168131176293812 23.5048446707219654  0.6889054863940903
 25.9071491353182672 22.2602728310803570  1.3345497208948560
 17.4913839260099238 24.3883928280610363  2.5808961010909299
 16.3047290993564289 23.9700443611742706  1.9478837348799509
 16.2424176568416598 22.5563878908871622  1.6134392638863027
 17.2152851419862323 21.6284330756759573  2.1597467225740941
 18.4378009817629902 22.0623265165708027  2.7353866699136784
 18.4481473349785823 23.4532683238563564  3.1324860628050333
  3.7384849660310047  5.9263310298052989  0.4211145520414922
  4.8747949244627762  5.6603087520925879  1.2204939239207109
  4.9456450038548665  4.3602656498137087  1.8013814299653865
  3.8286565263414980  3.3692793451391867  1.6813344115597553
  2.6335658421552544  3.6800442302073115  0.9717552498849196
  2.6353686959868110  4.9206783459133545  0.2708921143286867
 37.3512340469509994  4.2508957924629458  2.5030186215575374
 37.4547314717663795  5.4675967144625464  3.1981828757635538
 38.7535149442718705  5.8529819193293227  3.6231426075279529
 39.9803812047458393  5.1176543850971328  3.2320904279256712
 39.9041652551286745  3.9113839691177108  2.5087036237180436
 38.5682671954530676  3.5043315984789567  2.1132124520062745
 17.8567661308449068 12.9019280369539189  3.9689802209833633
 16.4950343219228088 13.1319829175944687  3.5832402690597549
 16.2319627335323737 14.3226315441544543  2.8570647494446026
 17.3327913918318117 15.2086847759684023  2.3743387056877809
 18.6919589994077668 14.8828289508299871  2.6146913334402346
 18.9271143541203344 13.6886616435315993  3.3047769463671131
 24.6437670674174214 15.4795469449036904  1.6790342222660835
 23.3778070572209273 14.9890012261516397  1.2024450065381920
 23.3261802930103350 13.5523898392534559  0.9638167192988453
 24.3425842057648403 12.7582875873028048  1.5527301136094089
 25.6317882100204955 13.2378486800165920  1.9045646061372616
 25.7531811460629818 14.6550992013021908  2.0504123998344230
 38.1426820173833647 31.7181668631095732  4.0131778450493378
 36.9064734774941243 32.1376233116045569  3.4324430530524817
 36.9614635477153683 33.3296723510887460  2.6165821635783040
 38.2317877777011645 34.1293527936487493  2.4890079734735986
 39.4610463571599510 33.7130560838171860  3.0871559524779162
 39.4136179030012812 32.4581969688058436  3.7487889619877293
  2.9403319872359952 31.2427450438636356  0.1826266482518837
  4.3408154978267923 31.5322067836116702  0.3115007713144427
  4.6336289067782452 32.7318912367031416  1.0080037922553537
  3.6515568450574309 33.5644042936889804  1.6643239847146525
  2.2411516318825706 33.2675665169196932  1.5313859608980558
  1.9742426574803060 31.9953547662198652  0.9943779940903994
 25.9161711254480842 22.1006980009660410  4.7727260685903188
 25.8229089102214253 23.4323115603931669  4.2466318687872642
 24.5180762342095058 23.9100129365041347  3.9205450035666156
 23.3790458146220601 23.3809955922941199  4.6448409631448104
 23.4203691927249409 22.0942325213767496  5.2320450326600119
 24.7182052272150408 21.4691266522017052  5.3347131476844005
 18.7536553273627540 23.4337156149574000  7.1610335399630749
 18.7221067493509494 22.0487316498143358  6.7491155910077403
 17.5119095575408110 21.6550998618797443  6.1543046288777932
 16.5312341130451479 22.6154350872734078  5.6333759248658888
 16.5841762156544341 24.0051039727890050  6.0178676693697639
 17.7376866130921904 24.4084469941289228  6.7170895280594154
  3.4970366202153569  5.5190494873343505  4.6640122832508668
  4.8194437056656749  5.4064714445485649  5.1146816090481000
  5.1921872422153665  4.0572890756920454  5.5630284686333535
  4.2392672212415263  2.8993356234649617  5.5894952608303905
  2.9417254065486600  3.0670911482303964  5.0910869058443877
  2.7021446925454815  4.3105259090404742  4.4359183251793102
 37.6396933348760783  3.3201845780526962  6.6288763195605123
 37.6702711575539126  4.6969775634249666  6.9980806989953415
 38.9830930063318135  5.2539947633543793  7.1085741548157850
 40.1517022115661604  4.4780113188865212  6.8277212546264234
 40.1160239896840949  3.1211812505299670  6.4479207651858639
 38.8047632839068299  2.5588242041992535  6.2959840245167342
 17.6137905391117791 15.3156215647761975  6.3912210998430945
 18.9289117034706429 14.7596028988740606  6.5698737369996900
 18.9823319071908720 13.4679144403779265  7.1259489470404880
 17.8496692050113310 12.8339162074279223  7.7422495920592587
 16.5283501267288102 13.3441159501466533  7.4957277748753395
 16.4764783109278738 14.6629189612347322  6.9741146150898130
 26.0594950566114356 14.6388614790773453  6.1166552315179556
 25.9627461183344437 13.2220299553661551  5.9168887356623729
 24.6858023074557842 12.7077463113338673  5.5472690307581596
 23.6153704002047391 13.4943516345934693  5.0590246237594885
 23.6952037531558872 14.9358208582418364  5.2555281163552401
 24.9379321688177065 15.4627659706090785  5.7471025918325225
 37.3309014322998252 32.6446531380266052  6.9421878508006793
 37.3943583223892091 31.3171866006454138  7.4231090934626911
 38.7008366635546963 30.8567075988859330  7.7888157267272717
 39.8529828330106426 31.4932311941818242  7.1640623215672186
 39.8408393859239212 32.8899165085316127  6.8688729838864999
 38.5167999404520174 33.4329594671507095  6.7684571577473358
  3.2736029553375698 30.8258993763243936  3.7743626677350952
  4.6760544039605660 31.1917017878417901  3.9453885042065933
  4.9149551436177470 32.3605976987894195  4.7269504167038532
  3.9002078673755727 33.0889025844625380  5.4034930672616728
  2.5247057822962331 32.7103467331265350  5.2091305842942273
  2.2850312278257512 31.4519613836825513  4.6336065336470469
 30.6956525787172261 26.5318998074295003  1.1126105416965801
 11.0432769529585837 26.0848748991249053  1.0082344342857243
  9.9674623708655510  7.9114452150008638  1.7235824348368054
 32.3136653567199232  7.6672102882023685  2.9611846097975989
 11.5915917341100414 10.5920587240830670  3.5174865939200819
 30.7433443839816221 10.8430484336217852  2.2394100678053332
 31.9835710156014059 29.2311081751381856  3.1378315387195252
  9.3943532036086346 29.1727239732562751  0.0404027371074482
 24.7727016848757025 26.6019245746142516  5.1912086197453196
 16.2177228157230395 27.9909246850202358  7.3795652841177359
  4.4365673054102350  9.2481724491056543  3.6901928616796700
 37.1759853120610444  8.3794650553533838  1.2366573421413689
 16.1520988386825017  9.4274175861115808  0.3371965936052038
 25.8177688225881994 10.1757950565904771  3.8539495548243496
 38.1905499079016906 27.8254627448335121  6.5591078034191286
  4.4067283339491246 27.5042884669375773  1.9211997570745325
 30.8052851474561038 26.0813492680079193  4.9468477767237520
 11.3693964775235816 26.0154552437052295  5.2031224964166265
  9.7117280199575706  8.0826888417617759  5.8004726436356231
 32.5417842496265948  7.2852669697468038  6.5972589706912856
 11.2498752393931092 11.0817678023057020  7.1625543892838204
 31.1115836900423659 10.6151484938819820  6.3788842836737389
 32.3232543101084318 28.7889014069063585  6.8291769789084613
  9.7035245444021836 28.8951558086421834  3.7769617159115967
 24.8332280089133164 27.0593079538862895  1.0761740839980871
 15.9554747739904350 27.7186738420418202  3.4568389919785276
  4.6790351218493811  9.7381365597543521  0.4011989505394234
 37.3195268260484170  9.2260643682693377  5.2230905699363923
 17.3719315898276569  9.3109690712772846  3.9474683409111977
 25.7917989943593398  9.8482627359941546  7.7905917768489212
 37.7385779174677438 28.3985385508980634  3.0656997077256412
  4.5932082401942740 27.8364496544662821  5.7978413996180418
 24.7205441268014248 20.6357770785178936  2.4993873162118945
 22.3605503241451373 24.2762427761058071  0.3965559130607290
 25.0484479374075732 24.6523145493041049  7.0730922033777599
 26.9718015637745125 21.6383750506857204  1.7227236227690232
 17.9015429788467806 25.6922660268839493  2.6232099589493441
 15.3677125027001455 22.0540286998980228  0.7884976314242087
 16.8483361310657749 20.3020979130397770  2.0064679905858775
 19.3857594915362199 23.9249539017906478  3.9036441188357545
  4.0042652116400559  6.8534911149668867  7.6147813769901509
  5.9956122915081265  3.9417486374017989  2.4324946600005202
  4.0347927339008640  2.2271167095721425  2.2718452711555766
  2.0850981348720290  5.1270388286459756  7.3508649581871079
 36.1904964812855923  3.7392604997408023  2.1685702219362990
 38.8939561466462038  6.8184165683751914  4.4581479358964264
 41.0940461182873804  5.6480827709705217  3.7947897427911399
 38.3688250594308684  2.4363970828047359  1.3999431073265727
 18.2642487811265148 12.0552309205663448  4.8456148668581296
 15.0180469026552945 14.6819681247350342  2.5185501168283246
 16.9770521928879106 16.2363740635110183  1.6629984692071962
 20.1346163438049430 13.2127885056969490  3.4434169189085866
 24.9508426879825400 16.8368843115797695  1.7920957361434948
 22.3976114489661811 12.8778008320116317  0.3212356770386891
 23.9999808194078277 11.4293179969470451  1.7647891540471417
 26.8712420258875042 15.2443477756956050  2.4585182583225524
 38.2851184473232209 30.6119239690875062  4.6684506118449125
 36.0193314888093497 33.6795135407444093  1.8092702824980968
 38.1320103334397231 35.0892453845113721  1.6385463335535893
 40.4739831466180533 31.8200705073403043  4.0948266091983871
  2.8766519439550020 30.2030950542281538  7.2180259852955420
  5.9637044851449676 33.1985506312205629  1.0333039934710815
  4.1395270970798528 34.4961920300451297  2.4621569619378874
  0.7565381469468093 31.3780634101672966  1.0624934427209940
 27.0214624810101789 21.4005468943627584  4.7442507620819487
 24.3052037277888928 24.8440197792847854  3.0444119052199188
 22.3326977306104695 24.2678547248098297  4.7034789810659845
 24.9003178024502141 20.3254553792142190  5.9364971140276213
 19.2434421425421185 24.0506817837883240  0.1160676838859326
 17.1800138970729073 20.3474014717162177  5.9282319038825078
 15.6384302194358042 22.1339938323360776  4.8112759383836803
 17.9561669785403204 25.6552568171434636  7.0577160652558772
  2.7662801692576209  6.6655766833093288  4.5189215920385202
  6.3388149879686937  3.8354635291274621  6.1141010389652592
  4.6964572147433445  1.8190674796826058  6.1597228236657324
  1.6689706359448739  4.4581466331130200  3.6952332223460678
 36.4633825431742196  2.5455265029567689  6.7048708284871248
 39.2578724098200880  6.5489877327400681  7.3944994384117706
 41.2972857156380329  5.2162710346201333  6.9378116931263847
 38.5975076782242752  1.3267280302212616  5.8808281727848968
 17.3859753851699352 16.4398004869556225  5.7475349416543562
 20.1427598635664395 12.7171139609238750  7.1420566954659446
 17.6595072976438949 11.9549055268889806  0.6535457747333613
 15.3269393699124326 15.4322658597452573  7.0404304783905607
 27.1207177547118548 15.1940180887575629  6.6931558729406948
 24.3774432465624713 11.3693968383401192  5.7157513166741314
 22.5720151388786228 12.7654602288831871  4.5445159237901995
 25.1058200063473400 16.7887536949159362  6.1377362139604204
 36.1663899394880843 33.2988548570203378  6.6825207465892138
 38.4546508546217396 30.0544167201103889  0.7767078836758591
 40.8699970040204974 30.5940693480514803  6.9113185294327328
 38.2219208735596254 34.7291541419340817  6.4382554825381577
  2.8280825611129710 30.0044683064552196  2.8886715150332405
  6.2288018439169894 32.8806777996518207  4.8725802449461986
  4.2654350125834499 34.0400505246753013  6.2497413737827596
  1.1053828779693342 30.7880082966639783  4.6913681981761650
 23.2927398963051751 25.0754005164836578  6.3685605913194614
 26.6697706439160633 20.2724875330483378  3.1425455985231250
 15.9450807561661172 20.2178051174662734  0.0811868235676467
 19.6437958204660923 25.8532966332223353  3.6652792305405959
  6.0104278195237777  1.9565645216167862  2.1632303921770895
  2.3655649708279194  6.9134084045872832  6.5160519657199956
 40.4556550544915297  6.5772722089527038  5.5879889349240663
 36.5130542677482808  2.5022205417534424  0.7520554728451753
 15.1073056288124032 16.0122317951399644  1.1128277660293635
 20.3575903759140076 12.4121097707795816  5.1634552457094687
 24.0935330861089092 11.1673889716829198  7.6328155259254018
 26.5224419032521226 17.0824954925880093  3.0635772048660197
 36.6810876478993890 34.8800160568270314  0.2595129228354243
 40.1890410557205939 30.0957938038620725  5.0493948176172685
  5.7969411978017682 33.5944374685354106  3.0031821217318244