# MP2/6-311+g(d,p) counterpoise=3 

one_3_frag

0 1 0 1 0 1 0 1
 C(Fragment=1)   -1   -0.02459500    1.40007200    0.00000000
 C(Fragment=1)   -1   -1.23749200    0.70046000    0.00000000
 C(Fragment=1)   -1   -1.23752000   -0.70037000    0.00000000
 C(Fragment=1)   -1   -0.02464200   -1.40013000    0.00000000
 C(Fragment=1)   -1    1.20009200   -0.71842700    0.00000000
 C(Fragment=1)   -1    1.20004600    0.71823000    0.00000000
 O(Fragment=1)   -1    2.38324700    1.40700100    0.00000000
 O(Fragment=1)   -1    2.38331800   -1.40712600    0.00000000
 H(Fragment=1)   -1   -2.17586300   -1.24909500    0.00000000
 H(Fragment=1)   -1   -2.17582700    1.24921700    0.00000000
 Mg(Fragment=1)  -1    3.62157600   -0.00001100    0.00000000
 H(Fragment=1)   -1    0.00114900    2.48712800    0.00000000
 H(Fragment=1)   -1    0.00092700   -2.48721000    0.00000000
 H(Fragment=2)    0    5.80065200    0.01607900    0.41854300
 H(Fragment=2)    0    5.81733000   -0.01733600   -0.32774900
 H(Fragment=3)    0    1.82556300    0.00108900    2.70850100
 H(Fragment=3)    0    2.32676900   -0.00333100    3.25495700






