# MP2/6-311+g(d,p) counterpoise=3

one_3_frag_2

0 1 0 1 0 1 0 1
 C(Fragment=1)   -1   -0.03214400    1.38041700    0.05308300
 C(Fragment=1)   -1   -1.23749200    0.70045800   -0.00786100
 C(Fragment=1)   -1   -1.23752400   -0.70037300   -0.06428700
 C(Fragment=1)   -1   -0.02413600   -1.40145300   -0.02709300
 C(Fragment=1)   -1    1.19764300   -0.71015100    0.01726500
 C(Fragment=1)   -1    1.20908600    0.74867400   -0.01793700
 O(Fragment=1)   -1    2.37440800    1.39935800    0.02605000
 O(Fragment=1)   -1    2.38020600   -1.40440000   -0.00303000
 H(Fragment=1)   -1   -2.17586300   -1.24909500    0.00000000
 H(Fragment=1)   -1   -2.17582700    1.24921700    0.00000000
 Mg(Fragment=1)  -1    3.63397100   -0.01281600   -0.03942700
 H(Fragment=1)   -1    0.00115000    2.48712900   -0.00203300
 H(Fragment=1)   -1    0.00093800   -2.48722600    0.06527000
 H(Fragment=2)    0    4.91848900   -1.81270400   -0.09823100
 H(Fragment=2)    0    5.49883300   -1.34003200   -0.10951500
 H(Fragment=3)    0    5.48569200    1.32265600   -0.00952300
 H(Fragment=3)    0    4.90458300    1.79425900    0.00857100



