O  B  C  H  Mg                          
    1.000000000000000     
    27.1793000000000013    0.0000000000000000    0.0000000000000000
    -0.0669033501676605   27.1478175614861605    0.0000000000000000
     0.0000000000000000    0.0148214401429777   27.1310959515997467
   O    B    C    H    Mg
   144    48   300    96    48
Direct
  0.8127866231514645  0.7492065343828243  0.2736636375985222
  0.3390254113324892  0.2314415716618445  0.8150492904007747
  0.6748200648101079  0.2722614125597356  0.7994787665036779
  0.1766064013443537  0.7636718419753571  0.2969142843090639
  0.1700146220693484  0.2508567947214944  0.1937806622944450
  0.6744555740495550  0.7429500198227676  0.7007709885185937
  0.3213157936792185  0.7498712194943369  0.7094408107676651
  0.8258399252752817  0.2454253924505141  0.2013429712105398
  0.3030000599224771  0.8289225986157465  0.7440474999536595
  0.8080387624829357  0.3209790118796625  0.2439120926875445
  0.7943169044994587  0.6735081971390953  0.2316609649196339
  0.3077480263725703  0.1712217026229040  0.7591494814496892
  0.1940549058142094  0.1751831221597719  0.2309926642355254
  0.6815610852575297  0.6636895843392062  0.7399357349120559
  0.6893639735455528  0.3468563569414459  0.7559892267185799
  0.2105000558083920  0.8287292840220012  0.2484883469633166
  0.7302643145451931  0.3310292506971644  0.8333674514913523
  0.2467945207652458  0.8069463839265401  0.3263155123339607
  0.2669194832651603  0.8054228311354572  0.6679573724891270
  0.7640717308659301  0.3003016311116710  0.1713452242467668
  0.2482866292769752  0.2147928679736810  0.1743639925896046
  0.7223120628828074  0.6796013600810492  0.6637374735830454
  0.7399222341999618  0.7043479195506769  0.2933856229125018
  0.2616172737014512  0.1912782289559323  0.8307566438125684
  0.9897884382606149  0.0625411488230697  0.5501079906132477
  0.4936885686083297  0.5905500082770270  0.0696735554519233
  0.5227769560366096  0.9048777596475099  0.0850508582219477
  0.0142399628739049  0.4191451081248805  0.5611791177156746
  0.4775269625681026  0.4204202045578515  0.4501361442064130
  0.9833632936204091  0.9291125514605978  0.9428536645091999
  0.0001626896081354  0.5607159570946162  0.9617761723522226
  0.5262267288248155  0.0718035196433654  0.4425124370092234
  0.0786094552909395  0.5459330014784409 -0.0010242241440190
  0.5723853556125041  0.0248436670825237  0.5008373279187012
  0.9211879369650798  0.0403958117073683  0.5004585166431491
  0.4268751496961069  0.5701261816046763  0.0156189279204038
  0.4044126904186504  0.4387793077133016  0.4945925824352832
  0.9165832462045415  0.9592470720126213  0.9907791069335218
  0.5765145973527929  0.9298020490616824  0.0189130261675910
  0.0945885196104124  0.4254708296410730  0.5247925841103683
  0.5599628826630532  0.9842885732828203  0.0859859633013049
  0.0718530230562148  0.4771221264536778  0.5924482678542492
  0.0558256448271092  0.5044428680062972  0.9243690236391485
  0.5559372740805556  0.9925691698272487  0.4200891191442315
  0.4254825700015053  0.4843340198934580  0.4210425342358105
  0.9421871798292767  0.0017357899897932  0.9170909182579606
  0.9328199828908115  0.0021947215900576  0.5794332439479902
  0.4495801182047011  0.5146948082072849  0.0796108715870812
  0.9581021079959630  0.6530992381680650  0.1381256787664092
  0.8598971519968257  0.6582518088450038  0.1438850198057934
  0.4242385655737107  0.1524544768434123  0.6207942820074590
  0.3802162722841783  0.1284498636311107  0.7035522924350538
  0.6213686833887370  0.2010741726196298  0.7522365115660048
  0.5411081175775599  0.1795693083805470  0.7024561268630970
  0.0393975226442907  0.6875730626553191  0.1996283639054386
  0.1264750865608012  0.6959889484111703  0.2407352139793932
  0.0809324993865442  0.1569495368257173  0.3784791970537869
  0.1259934994653182  0.1355637097350189  0.2954849515805094
  0.6334261175754745  0.8166295532400530  0.7760954485137292
  0.5405568513052093  0.8282225132497943  0.8080075930275562
  0.4390924870720703  0.8525468064160471  0.8790145625561463
  0.3567171765382567  0.8588226271870301  0.8224943423856278
  0.8602001443605790  0.3421012106071006  0.3265054243480720
  0.9457587593129499  0.3397512722022021  0.3723896932964632
  0.2018779799882088  0.8772877671506488  0.6291861575781140
  0.1235903613171923  0.9290347323731409  0.6515730130550642
  0.7071509258711699  0.3757875802609798  0.1374248451842753
  0.6225424300598009  0.4146585284446703  0.1590026492315515
  0.7046291194491846  0.6278315387764229  0.3505722869967195
  0.6350236149013251  0.5607008785975657  0.3496620203676539
  0.2535862604603616  0.1166978372459230  0.6904812847409355
  0.2068446334932548  0.0330388961081584  0.6771540964592863
  0.2527840360329228  0.1329697500412266  0.3060236309772347
  0.2947266757737955  0.0463809017654088  0.3184677304197416
  0.7879236110771933  0.6132279811006112  0.6314141285969050
  0.8760962872999838  0.5891995846890740  0.6637985779682014
  0.7142526059656729  0.4558977367001572  0.7276797569485249
  0.7971381171067384  0.4893471912597483  0.6849593515302856
  0.3660517536586564  0.9598349407371785  0.3521949324866038
  0.3152152608482757  0.8741915697879536  0.3618981642143206
  0.6441132156385194  0.1390361638101386  0.9227323317688118
  0.6272091363979460  0.2200883285610730  0.8728732827629331
  0.1338350062925435  0.7036684171533066  0.3681211190382666
  0.1503257613927989  0.6260270535792096  0.4233963869826988
  0.1909044142076828  0.7529586480536341  0.6229126852801971
  0.1796034235481404  0.7160345161004485  0.5335308408621174
  0.6912735403849979  0.2527253871740401  0.1174542524547185
  0.6708426334460609  0.2053456480553694  0.0352664836946529
  0.1616909095412439  0.3832318446033391  0.0482981734861571
  0.1423485978443776  0.3258666528984885  0.1275317984228204
  0.8201254171266545  0.7832931272738310  0.5317199752886057
  0.8035282485749331  0.7347176969323903  0.6149515496672675
  0.6714086442266453  0.7947325933983675  0.4463703613943669
  0.6740484696313956  0.7693952978131754  0.3558145420192218
  0.2055358733834136  0.2339176259486147  0.9052763972406787
  0.1916847698855159  0.3023364987235765  0.9732478041368795
  0.0598502409640409  0.1188626135381086  0.4992737520610098
  0.0658975459123242  0.2093605190547527  0.4651584992717333
  0.5297807862438262  0.6973551992054087  0.0430997872690737
  0.5687698593482750  0.7349572097357754  0.9602026262823572
  0.6211760776356888  0.8502783986452016  0.9818507821829751
  0.5882807032909956  0.8576697568863978  0.8916936120582011
  0.9389108251786842  0.2721349736568461  0.4571289523844906
  0.9535628001182128  0.3464977393908129  0.5192677419326592
  0.5450244212967665  0.3615095293421809  0.4951267627351557
  0.5585560178396651  0.2746822027794374  0.5362865453869095
  0.0694143666108385  0.7957786694756680  0.0387686292759035
  0.0531116876214378  0.8815321253114071 -0.0031638822124474
  0.9351750151413913  0.6178146389030366  0.0239316778268890
  0.9277337921852875  0.7074827330582649  0.0514509503671905
  0.4434181859125099  0.2083710241092579  0.5338071859695329
  0.4493780196090366  0.1186753125942164  0.4965284443042550
  0.1123400648464894  0.4241657284769275  0.9002674211864045
  0.1996144199755037  0.3803556986897551  0.9002516405979495
  0.7012122585023911  0.8814553785121532  0.3927692548188778
  0.6044142326597239  0.8929188644583095  0.4040212480365875
  0.8646269278358830  0.9879662160854317  0.4350553307954241
  0.7963333450572414  0.9165544261885241  0.4170564907818042
  0.3652419209643255  0.5194910285212240  0.9432939029410268
  0.2994309309493855  0.4455009482896853  0.9235662970412478
  0.2982121617112933  0.4657613562372800  0.5256907673213442
  0.2651031802587608  0.5498174936093594  0.5659171174940251
  0.7937538449575856  0.1273985683184397  0.8945124692335714
  0.8744490601696547  0.0703438673873203  0.8824012094437539
  0.7018869335512937  0.0495332221456295  0.9199220297623772
  0.6429634586569003  0.9760267656320504  0.9451796786931690
  0.1632353876510466  0.6275739196116031  0.5885291341595335
  0.1432110360231590  0.5396272751575755  0.6245714997836532
  0.4482651810731991  0.0750264976265858  0.2201860459024035
  0.5309811287161961  0.0408312135832256  0.1758784852012341
  0.9647894946894880  0.5760376209758207  0.7193444417423387
  0.0178364052038820  0.5583742928652218  0.6394068542305407
  0.9530434337976829  0.6123570448861839  0.8858722095241996
  0.8798955985967249  0.6024916062772993  0.8230152485584042
  0.3857005620179299  0.1000342919684254  0.3233922150924778
  0.4703152872689852  0.1194135168061684  0.3674713006717292
  0.5338453249720023  0.3790486845326015  0.3761642235377596
  0.6147653828572957  0.3961994521383617  0.3266975754335475
  0.1270941040849604  0.9095980086475494  0.8205398965241419
  0.0496637492189327  0.8919687251877942  0.8749518735651370
  0.1180681227361298  0.0917470074385768  0.6762275618971816
  0.0376827701486180  0.1105250863479509  0.6266098701315638
  0.5058331792139650  0.4431765154949757  0.1344763433628882
  0.5445992474963236  0.4295588612225040  0.2252248064500088
  0.8229577564122764  0.7157284695912483  0.2359614478763673
  0.3450652333105473  0.2030897419209153  0.7728189265180422
  0.6654984733592040  0.3012966227412456  0.7588063653924370
  0.1768548959471858  0.7906045449001453  0.2537092562977636
  0.1609563325090848  0.2134921822919916  0.2274928304296850
  0.6618336221046351  0.7114310568059864  0.7390489756519373
  0.3310927405258844  0.7865117965460764  0.7448098248890891
  0.8360417891575220  0.2787338803707701  0.2396854360745972
  0.2708834774172096  0.8390767844951822  0.7058632060264436
  0.7715866352907280  0.3325941663944561  0.2101927239062511
  0.7546712207334799  0.6660610522868456  0.2631875772178884
  0.2664525123618620  0.1641654715243699  0.7877766535556540
  0.2394239936107717  0.1780405308472549  0.2085428231462677
  0.7147094100533699  0.6492150798537417  0.7037007517448436
  0.7246231275475538  0.3599932387570359  0.7909235446820817
  0.2447534111007910  0.8380325163284148  0.2858822100120926
  0.7040773866207169  0.2871764158824541  0.8382683883701875
  0.2118927119498483  0.7702928593542666  0.3328481836287741
  0.2875657064001161  0.7591128464174125  0.6719852837616688
  0.7882680751357802  0.2558907702221648  0.1674735568117291
  0.2123901519870729  0.2506127525357738  0.1655404289663474
  0.7052607832086109  0.7274139333525950  0.6631335397624727
  0.7718964558316976  0.7424796473061142  0.3037354294257184
  0.2961712057404114  0.2267526645377591  0.8431476402430538
  0.9629901744909654  0.0685368522467234  0.5074629652070981
  0.4643827791374783  0.6022784207635367  0.0294602632003423
  0.5480303540845817  0.8930816243750637  0.0429927269596800
  0.0481469949333491  0.4028321924703451  0.5267480211003837
  0.4476007987665624  0.4113901052159191  0.4902071321998989
  0.9555622576529660  0.9265248178906607  0.9853031002678075
  0.0345885234605564  0.5720850539265894  0.9973240047706912
  0.5433608040520652  0.0655939034476360  0.4901586948181230
  0.0884743136916177  0.5103755134810730  0.9630487759304177
  0.5810087396610668  0.9891702634268877  0.4645437294567476
  0.9086430312438460  0.0038696644921804  0.5338946958705846
  0.4197782233451627  0.5257306621596403  0.0395797556548140
  0.3938604794006589  0.4762531663117442  0.4611295308638803
  0.9091198836354744  0.9966678082859356  0.9558077071084233
  0.5857324600181292  0.9750506537956173  0.0430145982974758
  0.1051802385230282  0.4644072889712076  0.5561975927553744
  0.5249785847063283  0.9527611830909566  0.1051757810516124
  0.0248748572090133  0.4575222588225588  0.5932456256626683
  0.0131560067708514  0.5318292949195460  0.9219978072194935
  0.5291207289947636  0.0344893814564578  0.4080566933022039
  0.4672381650939701  0.4553775720625716  0.4148425896089650
  0.9791283323992490  0.9672691952668736  0.9095544899656781
  0.9736795954888450  0.0319223200398467  0.5875106830676154
  0.4871181894662934  0.5457226684015698  0.0941386895512313
  0.0056928482470597  0.7533588337471104  0.1177316788688438
  0.5014973722482827  0.2393975020289498  0.6207578510265318
  0.0056136720757586  0.2436273944685378  0.3799981218720869
  0.5022586654603176  0.7618637207026927  0.8806975697504014
  0.1250509638875644 -0.0010496745000563  0.7438097906939035
  0.6225286558304458  0.4890596523681514  0.2583104684367856
  0.3752730512675202  0.0107154417781460  0.2542460105997258
  0.8784022043119705  0.5144584806861223  0.7492718726287294
  0.7346515905789482  0.1283619258282223  0.9901545216418011
  0.2373102854936361  0.6279020553695382  0.5000074983652419
  0.2607587889996950  0.3812948976375295 -0.0041366741440900
  0.7535127813660162  0.8558230847884839  0.4902555530502744
  0.9434214891940497  0.7752751098312882  0.1858916008082975
  0.9628472906507638  0.7409135815736059  0.1532729970853487
  0.9388526459220108  0.6940258261858262  0.1530445672790500
  0.8859713916879188  0.6914446157401350  0.1667770013083806
  0.8691523104020661  0.7247828383926287  0.2037215996107092
  0.8997777044132662  0.7656057124834502  0.2126632931123830
  0.4528876795143240  0.2595305365473924  0.6970897953896431
  0.4596520687367832  0.2267968665955964  0.6579020185551969
  0.4293201076332775  0.1838071899550301  0.6572643787249993
  0.3994603265116151  0.1723424022545162  0.7014281234143682
  0.3900727493343540  0.2089722217983156  0.7379617817052487
  0.4181488896589157  0.2519536462751412  0.7349182666440145
  0.6100742146007765  0.3131436736599794  0.6811617924476128
  0.6275714069745221  0.2832380604905895  0.7192654464991265
  0.6056480588026338  0.2353140444827213  0.7225327352662073
  0.5623913439284856  0.2217607037726729  0.6919947195312087
  0.5467705524789047  0.2537092179614470  0.6532821768835702
  0.5720107274142445  0.2984248989124484  0.6488131069606266
  0.0791741824279003  0.8052410061397368  0.1491426044674474
  0.0510192979060918  0.7622984873196167  0.1512254855189000
  0.0649143285342704  0.7265364089625671  0.1875848260419092
  0.1116140221967418  0.7334219097890790  0.2148748543817168
  0.1371042612524392  0.7793490436706769  0.2138875164191128
  0.1200100940620662  0.8140965726101077  0.1802705447219331
  0.0577779702598288  0.2690249226496718  0.3076580226986724
  0.0492799133281289  0.2339487670508137  0.3445514495168399
  0.0777397466998752  0.1900512508258440  0.3431409430884763
  0.1076191102781169  0.1796832746491533  0.2989533437535844
  0.1178670668633079  0.2178703439747988  0.2643785250383553
  0.0924021989400099  0.2621459767620140  0.2699241811173602
  0.6004078922164777  0.6907568471854699  0.8069133949598590
  0.6242243893156038  0.7270775769036630  0.7789607290828713
  0.6085045749248743  0.7768003900920472  0.7869989578318356
  0.5612134667686024  0.7850444641440630  0.8123112928935728
  0.5440469695253424  0.7485959000161405  0.8456200403381018
  0.5636669888015543  0.7014360490891072  0.8418217618952840
  0.4445852191683253  0.7348597161438774  0.8128462638787931
  0.4565467285420618  0.7710447266473397  0.8480613078568839
  0.4280884096164415  0.8143151994554150  0.8490483917488765
  0.3848671660207168  0.8183795104795502  0.8174977952293485
  0.3731890621434849  0.7807922605151286  0.7830167863162044
  0.4045458119241811  0.7396414269664235  0.7813569460196832
  0.9111073507174502  0.2302830974286523  0.2740398680598812
  0.8787501644807604  0.2703145826275480  0.2773341623784191
  0.8889173485882502  0.3048526855185864  0.3157700158412658
  0.9343919070427232  0.3006190352059602  0.3459035169582241
  0.9618068710498544  0.2561483486547230  0.3449722189468273
  0.9500623702499319  0.2228479406041384  0.3072254452673573
  0.2354394682525432  0.9119760615688606  0.7531459144178690
  0.2368967089063173  0.8845899289041358  0.7098002002194791
  0.2008799373006990  0.8959712920677481  0.6732010716357003
  0.1586387545431767  0.9285496577561413  0.6847717522567349
  0.1598509846727609  0.9560726593880950  0.7292934564462407
  0.1989822516490360  0.9476906858364442  0.7615048054925434
  0.7330246894106226  0.4014355852099586  0.2649008882231033
  0.7370287631098169  0.3772498560357344  0.2194481100831365
  0.7017645046404714  0.3903333573818921  0.1831092472048590
  0.6575918823913230  0.4184033688187879  0.1956052398891695
  0.6561233295587721  0.4448062856152419  0.2406670408015420
  0.6955517139028001  0.4353391074086709  0.2735950663893548
  0.7233905262060495  0.5831149101031796  0.2270626985091872
  0.7261850601654367  0.6164783786510118  0.2659740291737467
  0.6990214929138785  0.6041093372944619  0.3092487170934309
  0.6621543782892653  0.5634934442512489  0.3096078511290262
  0.6595289742863558  0.5318667776854272  0.2678372318966397
  0.6920479998476049  0.5419013135707229  0.2288217824515560
  0.1925507742592686  0.1082003411895475  0.8079581098501195
  0.2273798379188988  0.1247046234227594  0.7741123191824982
  0.2275519878228348  0.1009153814079405  0.7273950588439894
  0.1976791666070979  0.0560040910546793  0.7181954079370301
  0.1608896969090458  0.0423020730929391  0.7540033866750088
  0.1598662793696790  0.0688387449077024  0.7977547313608753
  0.3115183796490301  0.1194911822148882  0.1876042599772430
  0.2784580267869323  0.1384776381720398  0.2216495509779937
  0.2778421363819223  0.1159907934437037  0.2690765891034340
  0.3057572892674248  0.0700019553279290  0.2784881680414037
  0.3418287415392787  0.0546440124859742  0.2430803393521242
  0.3429562697397734  0.0793536164849086  0.1984283939189736
  0.7576296923989471  0.5845642462898155  0.7601470851643999
  0.7499658045374124  0.6045222497225126  0.7111585692427719
  0.7910876451111234  0.6010073849947132  0.6775806760833792
  0.8394229460888194  0.5831033971666013  0.6945834553814897
  0.8414087194598848  0.5567517553390896  0.7392266300653119
  0.8010229708366146  0.5605640547196304  0.7722707933514323
  0.8072012350793776  0.4025333646222475  0.8068539855846139
  0.7621263918667692  0.4025820392711740  0.7815995815431750
  0.7565656245669885  0.4402147769385208  0.7451246928404625
  0.8010985405338846  0.4651777062260269  0.7268454383548706
  0.8432328671181358  0.4692261926542828  0.7580697940662170
  0.8453265834925676  0.4368888045456139  0.7978757282555939
  0.3068956461769898  0.9527081316994833  0.2311231691211338
  0.3409743226464532  0.9674412989207368  0.2671201943368472
  0.3398872877590958  0.9437156077267361  0.3133018883443763
  0.3106256451138379  0.8992474533247031  0.3193363521708605
  0.2788639534825331  0.8833197268814121  0.2811793172935060
  0.2764089704868293  0.9122004536250431  0.2381778824329784
  0.7570653866601464  0.2069750643058025  0.9458163886392122
  0.7231566757175641  0.1687693113425854  0.9515007453181438
  0.6789469963901648  0.1720301624282984  0.9237995105419832
  0.6704542967970671  0.2163318455202015  0.8925101462984111
  0.7089193978308775  0.2513468335865204  0.8832009527983089
  0.7511828583188876  0.2460402172587391  0.9117030174572996
  0.2569577161933684  0.7334606379305466  0.4079072000087173
  0.2150430833326705  0.7356410674187820  0.3783060129716842
  0.1767508034195681  0.7015265567315193  0.3892591715915627
  0.1844812089803809  0.6602540966551146  0.4242301906458344
  0.2270304644818876  0.6614686902106385  0.4551569848024777
  0.2617627206275305  0.6984948840846431  0.4459189089010330
  0.3040161321849645  0.6849662842345199  0.6132698468483722
  0.2726131645600015  0.7208519795458220  0.6315920564378397
  0.2265200731204113  0.7260112174659255  0.6064973916396498
  0.2169936627705921  0.7005420225602308  0.5586880016302149
  0.2495999328577977  0.6616400431461171  0.5441396371761851
  0.2920744784384710  0.6555358488043056  0.5717644993378478
  0.8045019019126008  0.1848795059549151  0.1039935756049547
  0.7730302480622225  0.2199573446140654  0.1243900838092205
  0.7260867709457204  0.2241677154871491  0.1007853456460595
  0.7135337817944000  0.1954975713250461  0.0558575591792685
  0.7469922850524584  0.1590580852567071  0.0378527337483663
  0.7919694423371635  0.1556796920716699  0.0626433417963853
  0.2788537941748211  0.3178652862510263  0.0605459433966856
  0.2452585154633709  0.3530211854814126  0.0430137137721386
  0.1981374256413553  0.3542826856406085  0.0648801244577571
  0.1871059709870053  0.3223865454939569  0.1068014123521532
  0.2223264052396913  0.2883181975692503  0.1241173085184417
  0.2677664293855226  0.2865199613413695  0.0994827505819573
  0.6957609179687292  0.8246041930343951  0.5590654151766487
  0.7410154748423795  0.8235185015975059  0.5350973154285408
  0.7771020224473182  0.7896401613752473  0.5525755917522822
  0.7667519127054736  0.7603506124186059  0.5973498030647133
  0.7195005650359642  0.7620191560707615  0.6199125561545219
  0.6855063303067422  0.7950835387600187  0.6005557342734644
  0.8042586966043375  0.8137860026542663  0.4223715938947046
  0.7594659807325939  0.8199737600912859  0.4467342409144152
  0.7179799763975803  0.7955661307249468  0.4263726286060716
  0.7201697933824137  0.7773395282287302  0.3768082160458833
  0.7652541665438055  0.7723828436216980  0.3519698214669363
  0.8072218216521587  0.7898793661577185  0.3770238221356863
  0.3225797030730903  0.2983288267766682  0.8982363109320749
  0.2871582864047956  0.2629130280393090  0.8862873328169727
  0.2422704743497241  0.2640467428342195  0.9133121611052285
  0.2340079985032276  0.3028104536113176  0.9506265348126423
  0.2707536132902638  0.3399597098580290  0.9585065866723113
  0.3148775738295584  0.3355258990180870  0.9335569270840898
  0.9433762092237911  0.1272974421489828  0.4361037439277621
  0.9772447981565445  0.1090411643466226  0.4698965435305579
  0.0229208948968094  0.1344030739626876  0.4734180481596206
  0.0294380303728039  0.1831000362750091  0.4491400827127948
  0.9947217175253754  0.1977578724127702  0.4117488752627516
  0.9526129290423392  0.1694385197053290  0.4068420954126190
  0.4466786049983997  0.6487872810240076  0.9504018339639269
  0.4736730435229246  0.6468266957424573  0.9944896788888582
  0.5100845631849221  0.6841202384136940  0.0007828690221370
  0.5266050420803168  0.7114294632066185  0.9568648086477481
  0.4934637769038346  0.7175154316897870  0.9163965852295239
  0.4534322636024017  0.6855518718255605  0.9143512350952478
  0.4915847972650711  0.8249468466661342  0.0047803229537358
  0.5405510332325925  0.8435817385404902  0.0145582973547460
  0.5742318288153938  0.8408938624883650  0.9740082787289026
  0.5574003272548568  0.8345334542157725  0.9239052878568476
  0.5145363274830230  0.8047341966043067  0.9181963425903452
  0.4814413593789207  0.8042357574258910  0.9595653949365837
  0.0603721914776642  0.3117244346828441  0.4173884904108508
  0.0167276098316800  0.2852456030307041  0.4169029576412492
  0.9812137756477808  0.2953581778433604  0.4542622015555393
  0.9901578617581598  0.3353905410265767  0.4898671905560448
  0.0358256419145757  0.3614193956639337  0.4894691524140524
  0.0696900809822271  0.3483050622804439  0.4529538459142660
  0.4314069907965837  0.3514779480097557  0.5636601383317498
  0.4625939407689840  0.3698030390070646  0.5270450071829466
  0.5090849542285413  0.3454112674184271  0.5224001805394083
  0.5188910637375295  0.2988969045013498  0.5491706779452772
  0.4868293529445445  0.2838237872400284  0.5878624096130318
  0.4437354452802703  0.3109237715347589  0.5939777404577122
  0.9476625826553018  0.8230482857505776  0.0865968347543559
  0.9931857787754521  0.7992362946466740  0.0854912462268988
  0.0275488165731234  0.8170570275303383  0.0495630087749598
  0.0167998700331060  0.8635103613149637  0.0222584363325608
  0.9692399684217535  0.8857274633199201  0.0238951812268235
  0.9360291932975063  0.8640411094582714  0.0566219077273253
  0.0658687443126079  0.6430994791972399  0.0516775762205514
  0.0259800953653309  0.6176996472963960  0.0304310031015744
  0.9798608092588444  0.6406726413830778  0.0344468397613174
  0.9748919438651005  0.6895066006814163  0.0537212551450470
  0.0143028424704610  0.7104427055376564  0.0811341830154951
  0.0598508549024167  0.6870417449436488  0.0775006896491361
  0.5541874890367967  0.1653201290938195  0.5935489755265622
  0.5130773174138684  0.1947902176589238  0.5876048068813366
  0.4795997934024719  0.1812765467068461  0.5490606565934647
  0.4859813860738745  0.1332392278312713  0.5236648993877278
  0.5307344610959118  0.1063145408235725  0.5285472406232024
  0.5635608127213620  0.1232856104344418  0.5640723136114351
  0.1719742802929257  0.4896710623650090  0.0010067880437780
  0.1354868313046594  0.4790254121095336  0.9660697984461637
  0.1441580790630692  0.4389101606612318  0.9335452258485218
  0.1907161808907650  0.4110898412477613  0.9365637423885077
  0.2210128187319427  0.4178143007504407  0.9787416335263274
  0.2130819042917002  0.4594856404371945  0.0077856263095777
  0.6969262763107765  0.9259317750343664  0.5173449876568362
  0.7121759636167247  0.8936553070142896  0.4805019625309791
  0.6854869830129324  0.8962774769357505  0.4354305388150221
  0.6336365749682571  0.9130525086856309  0.4366304149498153
  0.6215194152543034  0.9501538382675772  0.4721322561840779
  0.6547897968735030  0.9553115835238136  0.5116318324497882
  0.8527354357887931  0.9319835409122572  0.5575972728729207
  0.8696382176726862  0.9645557897477339  0.5209457096396851
  0.8512823180067095  0.9583150282887284  0.4725576494992648
  0.8153684146353664  0.9201414930257590  0.4626001675317975
  0.7983301795079848  0.8890994402750806  0.5007412055313395
  0.8177444755077038  0.8956799496492464  0.5481349959017917
  0.3682694562484563  0.4504320717612086  0.0593541053189852
  0.3804188799281964  0.4870438149457372  0.0248125141136646
  0.3567328861184377  0.4854192923424149  0.9784252318567587
  0.3211463884460147  0.4468422544995450  0.9682105086992462
  0.3065865708494200  0.4136132650194417  0.0057126777357847
  0.3313327588975011  0.4156707197289157  0.0508355485978060
  0.3483755828806500  0.5566691657716798  0.4417263456093518
  0.3504350855609495  0.5129129297786157  0.4693283173622768
  0.3131436805733284  0.5076097870764991  0.5062353647879135
  0.2877618162195629  0.5522806855428872  0.5230256629371404
  0.2818108642303117  0.5927657464684692  0.4899992068997059
  0.3125714135012671  0.5937361174775438  0.4489824271308733
  0.7932351175860648  0.0590026698847370  0.0105043705746529
  0.7796603414757970  0.0957933670435031  0.9765513672739744
  0.8061339423073592  0.0974063741175165  0.9317920228700587
  0.8495244807703283  0.0658741502159495  0.9247951652066182
  0.8641957419607715  0.0317310757280463  0.9615419254383475
  0.8337444113737036  0.0283596148903436  0.0033185686125613
  0.6669680198244736  0.0901125590196619  0.0444265673690451
  0.6926040901829840  0.0906696134867623  0.9995766741125747
  0.6825359417241018  0.0519277743189705  0.9650641788216857
  0.6492687680139054  0.0132561181689141  0.9796702191753234
  0.6229073087048942  0.0139051297890510  0.0243051636238393
  0.6325510254289755  0.0539728923454548  0.0561692685399628
  0.1907354224694358  0.5492136890181503  0.4817138116331360
  0.1950827688059430  0.5909492028365114  0.5130344308099151
  0.1698816590761372  0.5901726846579576  0.5586328316046664
  0.1536366677634975  0.5420633375795646  0.5778166654134088
  0.1492564009720108  0.4999233390008917  0.5459294215389693
  0.1673771245149206  0.5059459845960380  0.4960253027981227
  0.4072539771216520  0.9521053259694326  0.1844599185863025
  0.4079936082293174  0.9973676570414715  0.2090495769100429
  0.4466887106791591  0.0306431412533979  0.1981576439223686
  0.4894621246057629  0.0142179589648383  0.1708661285344353
  0.4867457106684739  0.9692056665575091  0.1439102757137649
  0.4445242818125760  0.9397767445465955  0.1512912745250986
  0.9102762228011414  0.4607093795904809  0.6787447397995195
  0.9139617853999467  0.5037802793469258  0.7061066657356245
  0.9544029913955094  0.5360597702332804  0.6950260067708186
  0.9874464674631117  0.5237004354460776  0.6530593571660203
  0.9850706755230589  0.4766360532404798  0.6298009133605067
  0.9451337324565730  0.4469611347837442  0.6426625607738826
  0.9796310660245318  0.4891826247055410  0.8440198590461222
  0.9805125960629082  0.5296766856344545  0.8755279962939821
  0.9492961971377823  0.5698635885604915  0.8636656395416474
  0.9108868158536049  0.5655285608623273  0.8255278318783530
  0.9112313603419047  0.5228989619456599  0.7948330052895051
  0.9467597983283956  0.4868210871880141  0.8041224627347096
  0.4509593650181107  0.9848631406605513  0.3012676873574505
  0.4145737753144867  0.0208220700458611  0.2945256075510246
  0.4194204119328453  0.0656325670963485  0.3209121296055150
  0.4648577198109166  0.0750410132279856  0.3493798283307473
  0.4977546587030672  0.0353117468769213  0.3601899201395655
  0.4898823851782759  0.9907405127661293  0.3344697162447120
  0.5127006884095334  0.5062166859434820  0.3467958503078989
  0.5051752259595262  0.4622713469338347  0.3719598968932092
  0.5389991607732086  0.4234544350916005  0.3599283764603292
  0.5832576283174429  0.4323377022023012  0.3281792853872874
  0.5872631001925319  0.4775772975164433  0.3021550505700006
  0.5515360023080740  0.5128442993174898  0.3125042510289380
  0.0554697542652374  0.0217388496923270  0.8007330043103674
  0.0925776566865248  0.9872879103356592  0.7901516590058646
  0.0933612066952585  0.9442299190253048  0.8203346212477736
  0.0516550173475031  0.9355414642499066  0.8551760407234612
  0.0167557949918366  0.9730573120331132  0.8664309182492050
  0.0200304775886729  0.0159301089006514  0.8380569523865844
  0.0479042853372019  0.9788417916868513  0.6969225038134069
  0.0867242065507791  0.0121103826700802  0.7035411518733009
  0.0846391011558612  0.0567534844892580  0.6764595621418300
  0.0410855380715466  0.0663986026681346  0.6449233788349912
  0.0061182029264201  0.0284325454783308  0.6344705934985495
  0.0097864210429374  0.9855859781834312  0.6625317819555769