O  B  C  H  Mg
 1.0000000000000000
    27.1793000000000013    0.0000000000000000    0.0000000000000000
    -0.0669033501676605   27.1478175614861605    0.0000000000000000
     0.0000000000000000    0.0148214401429777   27.1310959515997467
 O   B   C   H   Mg 
 144  48 300  96  48
Cartesian
 22.0245259792071870 20.4077653716163461  7.4283125782935979
  9.1600597605648613  6.3251118716139079 22.0688770326168928
 18.2336784949867017  7.4677054216886614 21.7552889787071031
  4.6814645995703978 20.7684667893192731  8.0659566601782533
  4.5573058899563170  6.7494682821829333  5.2426023607808343
 18.2227274959834062 20.2310564850054853 18.9684524417077540
  8.5844952862582371 20.3373336519336583 19.2711560404402995
 22.4661307205892236  6.7110408108913058  5.4780983497271460
  8.1286037693179711 22.5066052185245589 20.1697850580281930
 22.0224905750731352  8.8009900520183919  6.5844195658229765
 21.4981744678762681 18.3779225625578384  6.2469143552844351
  8.2705319180427672  4.7471479306433659 20.5154701678977851
  5.2045234522017418  4.6767597173153623  6.2242728522470641
 18.4026229702826782 18.0363588560515353 19.9597483810167979
 18.9056884036156951  9.2480495868475021 20.3263856710613453
  5.7260284268873516 22.4243359159754192  6.6979243160624726
 19.9554893584109578  8.9400524292533508 22.4792551295326319
  6.6234125176623095 21.8878852933340120  8.8608961427653448
  7.2071483929414022 21.8820241352786695 18.0704469647071200
 20.8045756099856973  8.2049388862833279  4.6371866815791245
  6.7123244740846033  5.8112788392990637  4.7668471561593186
 19.8401507541929014 18.6695941713838458 18.1769011415619239
 20.0830697255105974 19.1474937655020554  8.0016172088892894
  7.0611875077732913  5.2300566844591678 22.5016430752856031
 26.9070626295570960  1.7025578343534555 14.9480837251907595
 13.4642666085069713 15.9275960643480143  1.8360485576309027
 14.0487032353063235 24.6782885924524180  2.1981133937024073
  0.3246535181570898 11.4331057870305006 15.1783179002391719
 12.9782191407339713 11.4180045201351366 12.2571878542142549
 26.7060930535346444 25.2547402312004294 25.6254172192332348
 26.9044462838816791 15.1763507209616364 26.1615005578050663
 14.3667525677350820  1.9474814630718043 12.0288688296673829
  2.0771754287155617 14.8160749618149179  0.0105091643844869
 15.5603275258400195  0.6596474436285936 13.6435414806562871
 24.9606283647308089  1.2243176139529710 13.6718196246105155
 11.5692184495414914 15.4234620671073479  0.4591241506150095
 11.0208047659494497 11.9716209062186749 13.4893705262444392
 24.9095612906743682 26.1096181583824283 26.9361283006594014
 15.5681843230915717 25.3872830781019836  0.4847601042731610
  2.5418935047561591 11.5416784340823995 14.2650057893287237
 14.9960268115148008 26.8811982633088498  2.2270765392550524
  1.8881789408056697 12.9877565363720961 16.0589915045023339
  1.4503720284216051 13.6662195664288451 25.1455699752477351
 15.0408709538460084 -0.2709704071024704 11.4914545553721670
 11.6027470002810738 13.1949511542359410 11.4890148100171494
 25.6654804306675182  0.0835162226392133 24.9201941048560123
 25.2876929439902547  0.1723844590334292 15.8035844595566228
 12.2070134427362191 13.9125130900162155  2.1824938000496630
 25.9818091783545420 17.7374837185906351  3.7875513752792318
 23.3232828534541028 17.8697692509950414  3.9748704895465115
 11.5679082291596611  4.0878014536241380 16.8527129209895428
 10.2685554265205479  3.5122427774529714 19.0621480711831417
 16.9146386702717280  5.3780129887570975 20.3999778014816222
 14.6894486995731466  4.8339789359461660 19.0884850035671150
  1.0015093416377712 18.6749319479922384  5.4492215868672877
  3.3755198145254597 18.8965251280893796  6.5511830868165450
  2.2048835905190276  4.2575505562215561 10.2979809245449410
  3.3949861352731645  3.6324681202395399  8.0343238966891146
 16.8984890067873508 22.1152076206434458 20.8534168105031945
 14.3915052253018239 22.3938720726846405 21.7947368699871014
 11.7388369772843237 23.0453036074116255 23.9459238974723903
  9.5142836620019722 23.2738573984241768 22.3743385736431115
 23.3925531068167061  9.3265860574238850  8.8885197707880668
 25.7128269167902950  9.2336830763256952 10.1383485069553529
  5.4229065909716168 23.8127289287447184 17.0476703593888921
  3.2956696274354385 25.2309772053360319 17.6605186507102623
 19.2388037804508798 10.2218480565693532  3.7273489422295101
 16.9369300727537535 11.2761450673834371  4.3203795344401028
 19.1160175199485778 17.0740318922845198  9.5150634736590991
 17.1990305947477680 15.2922016769760347  9.4685462338573299
  6.8404962892576018  3.2038298657938009 18.6892371375896609
  5.7111404111344619  0.8546864956576595 18.4014399966730728
  6.8125571867065737  3.5817186423076066  8.3323177820337051
  7.9959825833313518  1.2489347016267442  8.6793147818933214
 21.4124815118402658 16.7698777336433835 17.1059919843818165
 23.7591447059187182 15.9213476900973632 17.9412904839936793
 19.6691189234418040 12.1509528411463421 19.2769124080838132
 21.9373924620667147 13.2063448660970870 18.4601143694265986
  9.8342593192924745 26.0436523837359282  9.5831287742880438
  8.6350338700004734 23.6146858183861532  9.7557970250267925
 17.5538147878867292  3.8201202406469013 25.0191090937330785
 17.0441006214667325  6.0445410280611274 23.7371944950430205
  3.4990106892671222 19.1253714758466451 10.0567483085121001
  4.0069818081443174 16.9872364116983405 11.5076600227822130
  5.0865560986234026 20.3892185723177235 16.9229455247887088
  4.7952562653684208 19.4217767325098265 14.4751177839716529
 18.8168717113946897  6.8580495578497400  3.2380333461963868
 18.2581194186763796  5.5923586781704326  0.9942860162445107
  4.3607704876166071 10.3658595586154352  1.3153237146853645
  3.8292311394356884  8.8404056765612857  3.4860286400755807
 22.2951760818948657 21.3384584478934016 14.4778218525189288
 21.9101143179999411 20.2167331081936155 16.8488077296771230
 18.1990356646801068 21.6156556364125692 12.1353174247386217
 18.2862949714421248 20.8990045434353817  9.6783442656908267
  5.5532498287648515  6.3397739335295098 24.5473941701412528
  5.1519448540796828  8.1976812597667195 26.3848493041861403
  1.6310336891588122  3.2331432621315201 13.5581876274575563
  1.7833810439717213  5.6903417504352332 12.6287119044927110
 14.3498248540324997 18.9882842092517343  1.0337309449037260
 15.4496328329243280 19.7894736484202767 25.8259944159310635
 16.7958166529437207 23.4385377838422180 26.3882189677499532
 15.9390047584221808 23.0962702582815957 23.9874358241760213
 25.5190233293715814  7.3856184472682678 12.4037414049011900
 25.9074795519080823  9.4135490703925857 14.0808074098688305
 14.8415865249220555  9.8565758524308968 13.4966636729712377
 15.2091950629644135  7.4835481085952633 14.5791924977303307
  1.8299865946319742 21.6030397372540399  1.0672002793638449
  1.3826465087519049 23.9338301864744167  0.1514795287856452
 25.3343826675048476 16.7396977960543758  0.7152780275949637
 25.1319089667146116 19.1932161886512347  1.4235105284241518
 12.0719073018784329  5.6758087692642025 14.5193596988022495
 12.2294993126555678  3.2384004888049946 13.5002964572592798
  3.0079024250649646 11.5424989712296995 24.4729188504621789
  5.3771362937344449 10.3532063817333331 24.4431945232571124
 19.0508982919886698 23.9664533650314375 10.6644871779002166
 16.4178378940548875 24.2697375481406361 10.9782479794310870
 23.3839861110319447 -0.1369173249029709 11.8777053839274576
 21.5743099216710128 24.9875608601332608 11.3324306247963893
  9.8170208336840030 14.1389218236847700 25.6775108200004425
  8.0799328778710535 12.1022822872711870 25.1015042043591237
  8.0532861404475753 12.6750572203282363 14.2298777400603065
  7.2287413952239081 14.9721793658430276 15.3757576101282414
 21.6239946548982687  3.4946772784091151 24.2761987359548179
 23.8593100029122063  1.9801590744192066 23.9917976289831998
 19.1007813249227780  1.4366427339209609 24.9573213021518576
 17.3936965086269630 26.6183213090779880 25.5846261641943222
  4.3849591913486003 17.0565655842674531 15.9624907731433172
  3.7975623784031365 14.6877699862089450 16.9467332107365785
 12.1173394890204946  2.0593479659451210  5.9810313863138216
 14.2652607415575243  1.2699988214635849  4.4886318821186135
 26.1690180692960404 15.6915346503218434 19.4926864788979834
  0.3643870592638423 15.2511127918945082 17.2700781567785562
 25.8272184801200844 16.6111563675858456 24.1206200139795506
 23.8816069791880388 16.3905367095331584 22.3510709793713076
 10.4347862545882588  2.6762192743395561  8.8622954800218583
 12.7280191251062380  3.1920924583200914 10.0669869073449050
 14.5378390995622286 10.3122524811962375 10.2705774828217447
 16.7272501378271237 10.7722774618981614  8.9075084346259743
  3.3792347710439437 24.6508717446876098 22.2280527710497466
  1.2828863454756099 24.1842656349840333 23.7156069498676096
  3.2976165517809553  2.4336443404774104 18.2940346113223136
  1.0885604544780674  3.0196761190685097 17.0072874204643014
 13.7835466095661960 11.9483429326957005  3.6669230398766715
 14.8436372602279416 11.6308287976666698  6.1372291766434026
 22.2943707834566780 19.5083881587215302  6.3950557629989619
  9.3053446934203770  5.5766910279107416 20.9048675274862994
 18.1202068917921473  8.1171973897874636 20.5469746956506931
  4.7598271735864666 21.4450797120247678  6.8624256861364694
  4.3125746523546438  5.7277128468888581  6.1475361179403087
 17.8304215780477371 19.3215342254217077 19.9357225655881187
  8.8459282085417659 21.3321829365045872 20.2316754300288331
 22.7551323247861674  7.6314582542458647  6.5015565165850715
  7.2919377561506566 22.7869809052484840 19.1078459942813197
 21.0137260445586698  9.0944227759380603  5.6816837273936152
 20.4572923683916841 18.1366065991124294  7.1364106328323391
  7.1747981120433924  4.5204456787795033 21.3181146202361305
  6.4587071003406304  4.7924574841099989  5.6661380406325845
 19.4381181441461237 17.7165220616215855 19.0878529457828421
 19.8295701467605241  9.6628260936614776 21.2788136153113925
  6.6316343952585495 22.6893824934439046  7.7328877690252504
 19.1425641584358992  7.8359157588272197 22.7263995838129276
  5.6412679035223716 20.9269496156795576  9.0442259752773264
  7.7243459432809196 20.6089582590276770 18.2140344096033004
 21.4585685549195446  6.9940817819137022  4.5443782147507088
  5.7209531017779547  6.7619991614260071  4.4945949555989273
 19.2329583999244385 19.9071050214291922 18.0785847233968511
 20.9355244919099519 20.1961619073910903  8.2662766251396107
  8.0028104798187343  6.1859985799677188 22.8412616554260275
 26.1493450377616696  1.9097088272520995 13.8171387222218964
 12.6239823933632138 16.2718652165491626  0.7849310204085643
 14.7943948774791547 24.3937320616985254  1.0706405120663578
  1.2648523189724521 10.9615096305433806 14.2740165370019554
 12.1841844519861233 11.2089578588788346 13.3662790535694675
 25.9423661204133147 25.1896244200107944 26.7750388908429819
  0.8657217909791265 15.5030840104414747 -0.0234296789969545
 14.8016186334809987  1.7793770509368680 13.3296513243234340
  2.3440765301321820 13.8475118687692866 26.1859353546149443
 15.7089123625053251 26.6261127271558422 12.6677757932382704
 24.6263351041164746  0.2230198191856592 14.5665655211174201
 11.3760752962034175 14.2196516650323979  1.1120593878763363
 10.7266848774068588 12.9702748651320530 12.5606973539478410
 24.7078838119584994 27.1197773938024582 25.9817152658816966
 15.7632120432027989 26.6137620511265034  1.0999227233627238
  2.8085276989955266 12.6191414023471271 15.0981935617306302
 14.0853518180230779 25.9774242146960042  2.7457075963476782
  0.6089050145020756 12.4730011507513066 16.0536314400562716
  0.2808877991661454 14.3988669943782384 25.0775114264054579
 14.3496782415679096  0.8861596501339325 11.1464159630453565
 12.7202183641882733 12.3835509001078581 11.3104327838281034
 26.5905770890005257 26.2789200607791678 24.7119012697774103
 26.4432921310238811  0.9228373966981683 15.9912050349504096
 13.2667324181813679 14.7276489094568870  2.5254618916979648
  0.0914094828697200 20.4427889239042315  3.2003235595418609
 13.6396258939904680  6.4866480429344264 16.8556796846562769
  0.1498471490453693  6.6091641866445441 10.3201734735145578
 13.5194847938312055 20.5953800123456929 23.8345852048993123
  3.3527584873260010 26.9058851088953404 20.1804669979047127
 16.9172916733753844 13.2823539138707396  7.0275448136811871
 10.1801202954540315  0.2827458051796486  6.9378037432133306
 23.8689734321880991 13.9953105476759685 20.3436274555419949
 20.0041334219416740  3.5292525439020079 26.6633597278203531
  6.4001649286760163 17.0479415643934971 13.5495326554975701
  7.0451922077497571 10.3198882392322293 26.8456552770634147
 20.4501528172265381 23.2760374854963459 13.3109217385002498
 25.6029924127494404 21.0671473191237375  5.0509816800251652
 26.1172792875278397 20.1187714607694339  4.1746629782094100
 25.4602555852450756 18.8534857570760117  4.1859276015381139
 24.0260442575284472 18.7959860345143710  4.5643341311851016
 23.5665130909074030 19.7341043959854616  5.5382758854407985
 24.4085524857335550 20.8364421914156104  5.7727672088781112
 12.2834027957003258  7.0417223312477386 18.8814891346947000
 12.4863613122163404  6.1360361249494204 17.8372390151443803
 11.6635198211608806  4.9685660025531657 17.8220484592523221
 10.8067026815883303  4.6963420323644520 18.9991482273041079
 10.5361862763464789  5.7128131513723428 19.9661498574030816
 11.3115225587188544  6.8684542326212821 19.8862902958665266
 16.5992343552627091  8.4347036364096439 18.4920829172335139
 17.0807661461813396  7.6062761234213374 19.5048697535795625
 16.4776161251461346  6.3146937699544674 19.6032144467988623
 15.2821710160339883  5.9697831473993013 18.7963149871711970
 14.8580634931457656  6.8497937745534552 17.7553801508403986
 15.5484741981782157  8.0567057601314893 17.6321293637462944
  2.1134151326662063 21.8306252493608284  4.0182484499467401
  1.3322986121468061 20.6784524835045893  4.0976988288506240
  1.7030727380530002 19.7186222324311515  5.0973814165137066
  2.9778180384640507 19.9021441615368460  5.8291851239109409
  3.6864198650219753 21.1372289904252213  5.7763577810899429
  3.2319129619471076 22.0696755975046557  4.8494957384501198
  1.5474990635358652  7.2693182324813748  8.3381098519557852
  1.3255458067550052  6.3305588713186642  9.3520452851712346
  2.1025009709117870  5.1375445549980316  9.3236848451349061
  2.8966820344357713  4.8326602887299401  8.1203222232613133
  3.1610260117614417  5.8569152165880523  7.1656778959348841
  2.4834408246705619  7.0682022186357294  7.3132872582942818
 16.1119071894157457 18.6883694575928416 21.7011710872143375
 16.7178411903671851 19.6901882659856398 20.9400416850442426
 16.2421214417713173 21.0235675560968360 21.1486990561786463
 14.9688025403549130 21.2215092579692772 21.8682005615118236
 14.5704742838982799 20.2254201250154040 22.7948280550956852
 15.1330675349925734 18.9585945365802324 22.6754353810484730
 11.8422237864935784 19.8617879474215471 22.1163739793467649
 12.2166054560068176 20.8581458551291270 23.0411228878776662
 11.4321197480484713 22.0237593963543503 23.1120741984229170
 10.2607467063210862 22.1569823430975319 22.2550570799643701
  9.9359064496391731 21.1493377292373133 21.3123472383493642
 10.7487984197383426 20.0042975800287941 21.2784617598883088
 24.7678195258644855  6.2902796806876031  7.4424694926997255
 23.9002209490026907  7.3881200807666323  7.5369769633458947
 24.1718830537956499  8.3137074233606381  8.5909011537602744
 25.3984595302108076  8.1771651697713956  9.4144634441688240
 26.1357109092115714  6.9635204110856126  9.3804833782897479
 25.8158839112843346  6.0696566503376905  8.3493685495608609
  6.3394925017631527 24.7394207295952491 20.4131789351133577
  6.3789033619012736 24.0202780762359573 19.2227116888052336
  5.3952849744882814 24.3261862387103918 18.2401126707240344
  4.2500978947433881 25.2095099196012136 18.5591133719960162
  4.2860012021890110 25.9431960658512324 19.7771300851611720
  5.3425419732195465 25.6997468549224095 20.6543355277876834
 19.9603797182476121 10.9501752905404999  7.1792573290367319
 20.0647405857977432 10.2980102688308275  5.9428240767045617
 19.0927042273618675 10.6325386842663452  4.9641928600791552
 17.8901823504665387 11.3852963767937290  5.3110758093469599
 17.8458895515916929 12.0967055515125494  6.5391630869181396
 18.9276975510232965 11.8542200148096715  7.4250965917916059
 19.6141158151673700 15.8728363855606460  6.1572373438920547
 19.6965726390693447 16.7812025819870065  7.2111855600194223
 18.9664197857457886 16.4384949124268793  8.3915851868299924
 17.9581925140589860 15.3400946056435927  8.3983413199025243
 17.9095931223120743 14.4580636059831900  7.2815116172947372
 18.7911746585968302 14.7332290330327318  6.2230406215900835
  5.2031890462566492  2.9629797783465315 21.8916436760599922
  6.1294581115184821  3.4313203510566774 20.9612896649222833
  6.1600227529192209  2.7664769998621264 19.7041589920751612
  5.4054974801557210  1.5034243262831142 19.4840890593497704
  4.3975970022901967  1.1311692181787263 20.4496776350647167
  4.3490383878024339  1.8677305022597785 21.6253555184996991
  8.4161150175008821  3.2102710013181994  5.1159765207699497
  7.5307241549261175  3.7349130782960831  6.0463891083367267
  7.5126424680992567  3.1306880571970290  7.3366591663440515
  8.2889133968665867  1.8934179260671349  7.5957996685413258
  9.2661023644835385  1.4738103889289575  6.6324642331023993
  9.2728861919831491  2.1226863908418321  5.4088521778229977
 20.5274320370681842 15.8498781202868795 20.5466317205763787
 20.3410601482042956 16.4321897085090747 19.2344520377224093
 21.4688772589667423 16.3453731999118475 18.3358798342021707
 22.7646526689239046 15.7905546139285970 18.7827898711858161
 22.8247831659807972 15.1048177918671946 20.0177771817292118
 21.7131462912674493 15.2038700139048224 20.8933523304256319
 21.9043596161869800 10.9941582295171489 21.8891165541202959
 20.8158428117014154 10.8396607604271775 21.0144774828012686
 20.7459629625675639 11.7898921275014903 19.9368038156828291
 21.9584867797583705 12.5349446370288646 19.5976848505935521
 22.9608002330417591 12.7526257061791028 20.5822844089795005
 22.9017323938366566 11.9814158447631307 21.7414209980024928
  8.2738194505170082 25.8417585543147794  6.2795215089297765
  9.1805637445845800 26.2546023814063609  7.2695701815669773
  9.1596393182598774 25.5917781230283907  8.5123194320295994
  8.4353853939841468 24.3361507696177810  8.6382634713992221
  7.5722944200814934 23.9057698054315750  7.5996473673993670
  7.4810679115845087 24.7124416531451203  6.4494959949979362
 20.6050655157934806  5.6739209065442147 25.6527231790908097
 19.6927770845046837  4.6311373575818289 25.8138890939463970
 18.4883631270623461  4.7245580334301103 25.0635702087081889
 18.2324985903055570  5.9406033763159583 24.2365252846607504
 19.2748846607236892  6.8907651557641749 23.9661468365704984
 20.4294270173089920  6.7392358622916193 24.7326136943582604
  6.8797859915118158 19.9097364643148964 11.0449203212781164
  5.7166819814642107 19.9859988928969443 10.2793757159427734
  4.6829779805846661 19.0593838108893898 10.5932000714774279
  4.9247568335422764 17.9245151709447512 11.5185543037603981
  6.0964139033255931 17.9557745083718530 12.3356886192946824
  7.0361668338607624 18.9575815494352113 12.0677843302941135
  8.2381158166161015 18.6667716729704125 16.5637287017697545
  7.3400030970250514 19.5777852876122545 17.1060058296283017
  6.0725947009759240 19.6893186721759150 16.4531075903310473
  5.8214674981992500 19.0104878488710369 15.1501569813999559
  6.7349496915895779 17.9840135067133389 14.7289912960613414
  7.9277719187141473 17.8787372291782063 15.4269322483239986
 21.9227694628396605  5.0725546511169215  2.8073712189101339
 21.0572278917658231  6.0090427355540239  3.3773904657587526
 19.7706185894501338  6.1021856394750928  2.7592318732765100
 19.4285189445882231  5.3294676702661379  1.5371121267298482
 20.3436885053290837  4.3517843260746183  1.0308677943835598
 21.5827450492107538  4.2870939043981346  1.6803944768239660
  7.5385082693367469  8.5744835801405674  1.6582836910921996
  6.6284169181460397  9.5340761717137141  1.1862008791289063
  5.3449319304962977  9.5759419467986042  1.7728651670831104
  5.0381651403936001  8.7185778278356718  2.9102275202460088
  5.9899373183359002  7.7824165043409161  3.3731859167071905
  7.2261495491405903  7.7197858433698618  2.7063606292451241
 18.9046652562130788 22.4615393009533619 15.1976919074684833
 20.1310731155141021 22.4226277669509777 14.5432903238183950
 21.1347991235654540 21.5433084903446463 15.0487800106947542
 20.8907286237110057 20.8398658535337127 16.3198503055674884
 19.6038343126048069 20.8662353907047766 16.9212091106526898
 18.6446686893382392 21.7023103418661272 16.3553866130724330
 21.8089564920922925 22.1333250429359616 11.4820188620837715
 20.5935689480194704 22.2886792772713314 12.1444082513949194
 19.4671661684157193 21.6196079475935790 11.6006127419130625
 19.5356282292756482 21.1180622029594147 10.2596788996399901
 20.7617992114568395 20.9954252807611788  9.5820645709685852
 21.8985624169367270 21.4888175990229477 10.2518179678433814
  8.7211354466756195  8.1021713707784908 24.3643859969532777
  7.7644392289537070  7.1418388965214792 24.0334693906208301
  6.5465057603885253  7.1609658058642474 24.7716283565690958
  6.3127515132571617  8.2095162628158604 25.7898978423020715
  7.3137231173493378  9.2119927298266191 26.0187149794463828
  8.5105130902608561  9.0989104631419711 25.3374456220713711
 25.6371067238851964  3.4630915380289231 11.8530686779544343
 26.5571981404132487  2.9735921655223101 12.7747718253802596
  0.6241861971145510  3.6528792273133615 12.8594532479259946
  0.7974258449534266  4.9716540609443527 12.1952972455137854
 27.0302128003031861  5.3679927513008829 11.1835476570815704
 25.8859175385960398  4.6018518855798813 11.0512233413529337
 12.0270908918823398 17.5843117900728814 25.8258807279150808
 12.8440307387185797 17.5019879391605571 26.9617819874353408
 13.8460431732980069 18.5226678298272205 27.0561919021689903
 14.2874382347910434 19.1765727713465139 25.8085756604642818
 13.3127577051823902 19.3806072799490998 24.7876460309537592
 12.1727927284602906 18.5862987437209242 24.8408858075780401
 13.3893905257123649 22.4119663300300864  0.2471184754727794
 14.6541725621236232 23.0762378707205009  0.4257233191076293
 15.5598231633650386 23.0198347507235930 26.2521500434296016
 15.1109922474915628 22.6053685805301683 24.9227667508997612
 13.9641572944101000 21.7606920786624087 24.8372689555658432
 13.1261583740852608 21.7534214632593397 25.9951598213346209
  1.6280208101192311  8.4797061318053331 11.3082374654831828
  0.4562688801590241  7.7422386251196391 11.3131402768459388
 26.6636977871737209  8.0221036781960056 12.3190386753372305
 26.8960158808858729  9.1187056929273460 13.2733080629866986
  0.9426038495102208  9.8455870268343642 13.2488280475574367
  1.8612068700347517  9.4975595386586953 12.2527483690773522
 11.7498451387558109  9.5637071597425649 15.3457885288533156
 12.6014213638028636 10.0801800534023851 14.3670034654312726
 13.8654298968775311  9.4147213565959831 14.2313910172728111
 14.1315435841055379  8.1374734703943314 14.9381528200008233
 13.2534087020565767  7.7088797676900187 15.9744300781627526
 12.0787009602248752  8.4407015373684118 16.1413472118560364
 25.6863745446339280 22.3294238844800965  2.3561757569193280
 26.9259373535506299 21.6831980483884195  2.3239810382419228
  0.6836015842987267 22.1678718509214221  1.3566275605215830
  0.3901734110272473 23.4301243342554812  0.6263139495993792
 26.2734173096777646 24.0304692647345206  0.6627273773129229
 25.3690748631056380 23.4530429264476261  1.5565070562595840
  1.7144648777623221 17.4418903468286821  1.4174389839350814
  0.6247575612836020 16.7485012226743137  0.8612015605684814
 26.5483898327252206 17.3692612361533847  0.9740077208192268
 26.4114757247907441 18.7033224868628842  1.4813203982625649
  0.3126566084120342 19.2772327502263217  2.2076343323880141
  1.5502350640103668 18.6442893424147584  2.1021785280791363
 15.1020867516248583  4.5077952184751089 16.1040042478591694
 13.9753279040412366  5.2946089114099086 15.9496923428651804
 13.0627769584264772  4.9337374087425241 14.9106837901911291
 13.2345318555137759  3.6345038814095014 14.2214077173813926
 14.4567358760917024  2.9043450088666534 14.3471456324934614
 15.3573762906663234  3.3725917642687895 15.2956684940235572
  4.6190380582079928 13.2452094199040005  0.1154394279478088
  3.6307982975602036 13.0005701263679612 26.2827999907540999
  3.8719542251707297 11.9255537003085994 25.3832187005123266
  5.1394576253823141 11.1676930061551207 25.4459018771403755
  5.9616665059040619 11.3192112328623047 26.5940259162273698
  5.7359618304024194 12.4152787828997635  0.2781825061157006
 18.9212108564557546 25.1824746971008580 14.0541101334744383
 19.3331062351346148 24.3080913706297146 13.0484843095985852
 18.6203820828845714 24.3806733961275306 11.8191662411992731
 17.2088114089991961 24.8296306214354416 11.8573074664793694
 16.8566129391662116 25.8101653361922452 12.8397001072146590
 17.7590482798805240 25.9602680542110527 13.9136019671715783
 23.1004698242364093 25.3641189100754829 15.1534650680140910
 23.5226575077228688 26.2921656007445854 14.1851859949292791
 23.0158438818241464 26.1480958433326549 12.8683872348913528
 22.0893014721902468 25.0720267127265011 12.5677692958785503
 21.6581002437707433 24.1924698456236982 13.5852681897214431
 22.1785823792873700 24.3619453567433801 14.8740701971959979
  9.9645974180126338 12.1758140434741691  1.6479625571535204
 10.2831122563598818 13.1874766721454240  0.7251681954721722
  9.6206122734367394 13.1814104348660095 26.6050740495300282
  8.6715632062908270 12.1253274961297297 26.3108877416833273
  8.2875526146540324 11.1890394565655455  0.1837571313258141
  8.9633952115551914 11.2328606525914338  1.4076246288937408
  9.4194643197011434 15.1054773900420845 11.9550618676493023
  9.5105704301133400 13.9397881752719321 12.7332174422715649
  8.4863835302209605 13.8055185290369948 13.7286083960239615
  7.8206897468728567 15.0295795820862406 14.2005124952582982
  7.6200755282591590 16.1011583527934654 13.2772424720926061
  8.4165424134755433 16.0923552401397778 12.1351149725410714
 21.6124007526262254  1.6514843734366671  0.3131541238548365
 21.2317633923421063  2.6391244874999682 26.5016896528997812
 21.9625389335730254  2.6840763504811482 25.2937006371903514
 23.1541209852543375  1.8442039107857637 25.1262693350699209
 23.5515413413666828  0.9259085797400172 26.1318837201167540
 22.7270555018034841  0.8299263318782163  0.1382507636762216
 18.1575330757336744  2.4928627938248153  1.1840889454246257
 18.8516070698400604  2.5005868963736488 -0.0241821286380416
 18.5503835232758405  1.4868255027520429 26.1609912389694443
 17.6113054160916995  0.4527242878887776 26.5275355849871630
 16.8766545769215739  0.4884537554177867  0.5990013763980855
 17.1748307356276655  1.5519596537013092  1.4725192206472022
  5.1818531875795939 14.8829241591394528 13.1010468514183724
  5.2667017429926224 16.0381686152206662 13.9283338718355640
  4.5694433168585578 16.0324635618555185 15.1600196361638577
  4.1051085413922195 14.7360666099588951 15.6828170175744894
  4.0013633246061611 13.5822692541285956 14.8295858344199107
  4.5387982438940737 13.7147828269832726 13.4917480821536611
 11.0033329913883424 25.8368406470262357  5.0672400769675461
 11.0081455910886348 27.0716310413451673  5.7215638867949545
 12.0871865334958226  0.8518751463621782  5.3853131491188515
 13.1885226593973748  0.4636480877438635  4.5329909973638847
 13.0654328643055155 26.3725032016377945  3.8410594455792917
 11.9793554534512321 25.5228340779379401  4.1204647083466179
 24.7821930695583070 12.5004329250888553 18.4796937869046687
 24.8426908584709913 13.6933297230960154 19.1830301378404542
 25.8967730651673271 14.6001559396763305 18.8399977549026367
 26.7624910444618109 14.2869007737220599 17.6684585142279538
 26.7190178891328962 13.0007445881851798 17.0491908595600989
 25.6967858131848352 12.1514592651576763 17.4638653600151841
 26.5360493136367808 13.2594069800962568 22.9598206879384819
 26.5680126108454395 14.3574484897058348 23.8174701394719968
 25.7362754166388079 15.4663432428173664 23.4987810901192020
 24.7175534626399731 15.3801365964655847 22.4321062724704809
 24.7392212993573004 14.2381846908790113 21.5852947242970998
 25.6656415338161921 13.2258969571205540 21.8616230268375347
 12.1685452171066135 26.7257515017866822  8.2147444608802580
 11.2420376084905627  0.5475414604641080  8.0372765956288763
 11.3560667873203602  1.7480545736648072  8.7842649943348441
 12.5801168004228288  1.9888932850284569  9.5822732382951639
 13.4576426563875700  0.9023501828926578  9.8841364460336436
 13.1980012709978247 26.8663107144818163  9.1571061902338293
 13.9297017210471719 13.7462475921609641  9.4338403603496896
 13.7443865995362131 12.5639814841125705 10.1383926411809870
 14.6701069278551426 11.5131881408351724  9.8173152986136962
 15.8651249261835883 11.7487644257765478  8.9421364534765022
 15.9606144291490999 12.9708361747935079  8.2214811821662170
 14.9810903952968886 13.9241422576767242  8.4974984760305272
  1.5282946389482810  0.5746706722132966 21.7359508442954628
  2.4694108677124409 26.7860771418533119 21.4423625519028782
  2.4763596607345266 25.6061895789179985 22.2435645222612237
  1.3460547647069492 25.3738686252845049 23.1934251579607178
  0.4159491802398742 26.4058329013550690 23.5218968082245468
  0.5737352655319243  0.4216508338267224 22.7567510405969919
  1.2225428807433920 26.6006460859979512 18.9416051740772211
  2.3702930794832895  0.3260277962074230 19.0965408716296388
  2.3476402096586564  1.5252547291190157 18.3403862853181536
  1.1561634017593254  1.8224213800422211 17.5101193011322209
  0.1686373382080212  0.8195803188610735 17.2508134525414150
  0.1838620833925941 26.8073826255454186 18.0171227595966315
 15.0899651867611393 15.2711376641998555  4.2257576714622322