Converted by xsd2pos.py                 
    1.000000000000000     
    11.1038399999999999    0.0000000000000000    0.0000000000000000
     0.0000000000000000   11.2002380000000006    0.0000000000000000
     0.0000000000000000    0.0000000000000000   32.4346430000000012
   Mn   O    La
    32    97    32
Selective dynamics
Direct
  0.0019650441741719  0.9973906966982726  0.4789918976745035   T   T   T
  0.2540937419063406  0.2463324358804692  0.4791514394266477   T   T   T
  0.2500000000000000  0.2500000000000000  0.1119130000000013   F   F   F
  0.0000000000000000  0.0000000000000000  0.1119130000000013   F   F   F
  0.0000000000000000  0.0000000000000000  0.2335179999999966   F   F   F
  0.2500000000000000  0.2500000000000000  0.2335179999999966   F   F   F
  0.2501496884920009  0.2498783438911533  0.3559782235571541   T   T   T
  0.0042393995799807  0.0012280857959531  0.3557448220429066   T   T   T
  0.0024034870295186  0.4975380026235202  0.4785565602056752   T   T   T
  0.2537311983541986  0.7487594133626393  0.4787797813252151   T   T   T
  0.2500000000000000  0.7500000000000000  0.1119130000000013   F   F   F
  0.0000000000000000  0.5000000000000000  0.1119130000000013   F   F   F
  0.0000000000000000  0.5000000000000000  0.2335179999999966   F   F   F
  0.2500000000000000  0.7500000000000000  0.2335179999999966   F   F   F
  0.2498197904568392  0.7511012849455361  0.3558864118472873   T   T   T
  0.0039661614842512  0.5011544744473552  0.3560016918177439   T   T   T
  0.5020515205897788  0.9973063313394062  0.4787979517376342   T   T   T
  0.7556101110667499  0.2465319352246921  0.4790596804235492   T   T   T
  0.7500000000000000  0.2500000000000000  0.1119130000000013   F   F   F
  0.5000000000000000  0.0000000000000000  0.1119130000000013   F   F   F
  0.5000000000000000  0.0000000000000000  0.2335179999999966   F   F   F
  0.7500000000000000  0.2500000000000000  0.2335179999999966   F   F   F
  0.7504371130101773  0.2492366116781214  0.3560196646916376   T   T   T
  0.5041769088603384  0.0013488614606734  0.3559602072930820   T   T   T
  0.5009238358677518  0.4973263842754820  0.4869973996113188   T   T   T
  0.7553997718814666  0.7481157104619640  0.4787290443983605   T   T   T
  0.7500000000000000  0.7500000000000000  0.1119130000000013   F   F   F
  0.5000000000000000  0.5000000000000000  0.1119130000000013   F   F   F
  0.5000000000000000  0.5000000000000000  0.2335179999999966   F   F   F
  0.7500000000000000  0.7500000000000000  0.2335179999999966   F   F   F
  0.7497920510922718  0.7506057930425049  0.3559138303910105   T   T   T
  0.5055362416914195  0.5005695838593270  0.3568947632869482   T   T   T
  0.1422340000000020  0.1070800000000034  0.1216050000000024   F   F   F
  0.3577670000000026  0.3929199999999966  0.1022210000000001   F   F   F
  0.3922329999999974  0.1429189999999991  0.1022210000000001   F   F   F
  0.1077670000000026  0.3570800000000034  0.1216050000000024   F   F   F
  0.1077670000000026  0.3570800000000034  0.2238270000000000   F   F   F
  0.1422340000000020  0.1070800000000034  0.2238270000000000   F   F   F
  0.4630960000000002  0.0077810000000014  0.1727160000000012   F   F   F
  0.0369039999999998  0.4922189999999986  0.0511109999999988   F   F   F
  0.2130960000000002  0.2422189999999986  0.0511109999999988   F   F   F
  0.2869039999999998  0.2577810000000014  0.1727160000000012   F   F   F
  0.1554838963980638  0.1054031901696588  0.3623267015179875   T   T   T
  0.3555840078247396  0.3910764851445996  0.3458870318579640   T   T   T
  0.3898856493492315  0.1472809909795514  0.3444849855215294   T   T   T
  0.1073985746213729  0.3468422473925059  0.3624538201257617   T   T   T
  0.1291519797136663  0.3737057029392737  0.4700742769968596   T   T   T
  0.3922329999999974  0.1429189999999991  0.2432099999999977   F   F   F
  0.3577670000000026  0.3929199999999966  0.2432099999999977   F   F   F
  0.1271196596627663  0.1232320000525821  0.4704410963789581   T   T   T
  0.4774128931061361  0.0053379071349716  0.4127748630315522   T   T   T
  0.0353039999999964  0.4927890000000019  0.2948599999999999   F   F   F
  0.2146789999999967  0.2427849999999978  0.2948609999999974   F   F   F
  0.2779510545624241  0.2516420726068516  0.4128763922967673   T   T   T
  0.1422340000000020  0.6070810000000009  0.1216050000000024   F   F   F
  0.3577670000000026  0.8929189999999991  0.1022210000000001   F   F   F
  0.3922329999999974  0.6429189999999991  0.1022210000000001   F   F   F
  0.1077670000000026  0.8570810000000009  0.1216050000000024   F   F   F
  0.1077670000000026  0.8570810000000009  0.2238270000000000   F   F   F
  0.1422340000000020  0.6070810000000009  0.2238270000000000   F   F   F
  0.4630960000000002  0.5077810000000014  0.1727160000000012   F   F   F
  0.0369039999999998  0.9922189999999986  0.0511109999999988   F   F   F
  0.2130960000000002  0.7422189999999986  0.0511109999999988   F   F   F
  0.2869039999999998  0.7577810000000014  0.1727160000000012   F   F   F
  0.1551191657890797  0.6058900690440241  0.3627478134738179   T   T   T
  0.3539158016930292  0.8903497918632052  0.3449272813427712   T   T   T
  0.3896183209119037  0.6485281872815839  0.3456018410822824   T   T   T
  0.1058159399275476  0.8475908332775661  0.3620171912879428   T   T   T
  0.1286783174843265  0.8747552860399791  0.4702395138600030   T   T   T
  0.3922329999999974  0.6429189999999991  0.2432099999999977   F   F   F
  0.3577670000000026  0.8929189999999991  0.2432099999999977   F   F   F
  0.1271300142981210  0.6240646816091631  0.4699434336216717   T   T   T
  0.4819665662961335  0.5025579682804105  0.4146535131287648   T   T   T
  0.0353039999999964  0.9927899999999994  0.2948639999999969   F   F   F
  0.2146779999999993  0.7427940000000035  0.2948629999999994   F   F   F
  0.2773168600175073  0.7596284096442714  0.4126730894333802   T   T   T
  0.6422329999999974  0.1070800000000034  0.1216050000000024   F   F   F
  0.8577670000000026  0.3929199999999966  0.1022210000000001   F   F   F
  0.8922329999999974  0.1429189999999991  0.1022210000000001   F   F   F
  0.6077670000000026  0.3570800000000034  0.1216050000000024   F   F   F
  0.6077670000000026  0.3570800000000034  0.2238270000000000   F   F   F
  0.6422329999999974  0.1070800000000034  0.2238270000000000   F   F   F
  0.9630960000000002  0.0077810000000014  0.1727160000000012   F   F   F
  0.5369039999999998  0.4922189999999986  0.0511109999999988   F   F   F
  0.7130960000000002  0.2422189999999986  0.0511109999999988   F   F   F
  0.7869039999999998  0.2577810000000014  0.1727160000000012   F   F   F
  0.6562687421640898  0.1036461505460539  0.3623609325156857   T   T   T
  0.8548335169162214  0.3885424524613812  0.3448696952210810   T   T   T
  0.8908716453167836  0.1459340156872975  0.3446306981793958   T   T   T
  0.6082796995038329  0.3453777952835008  0.3628843874327833   T   T   T
  0.6342010240391732  0.3678679992989243  0.4703791432841105   T   T   T
  0.8922329999999974  0.1429189999999991  0.2432099999999977   F   F   F
  0.8577670000000026  0.3929199999999966  0.2432099999999977   F   F   F
  0.6276231034604102  0.1219468569354382  0.4701933493844611   T   T   T
  0.9786606952912049  0.0049032686789626  0.4126329522913279   T   T   T
  0.5353220000000007  0.4927869999999999  0.2948620000000020   F   F   F
  0.7146970000000010  0.2427849999999978  0.2948620000000020   F   F   F
  0.7814593105262294  0.2510641970689151  0.4128994317457562   T   T   T
  0.6422329999999974  0.6070810000000009  0.1216050000000024   F   F   F
  0.8577670000000026  0.8929189999999991  0.1022210000000001   F   F   F
  0.8922329999999974  0.6429189999999991  0.1022210000000001   F   F   F
  0.6077670000000026  0.8570810000000009  0.1216050000000024   F   F   F
  0.6077670000000026  0.8570810000000009  0.2238270000000000   F   F   F
  0.6422329999999974  0.6070810000000009  0.2238270000000000   F   F   F
  0.9630960000000002  0.5077810000000014  0.1727160000000012   F   F   F
  0.5369039999999998  0.9922189999999986  0.0511109999999988   F   F   F
  0.7130960000000002  0.7422189999999986  0.0511109999999988   F   F   F
  0.7869039999999998  0.7577810000000014  0.1727160000000012   F   F   F
  0.6553222698758708  0.6040757390897167  0.3629974410679578   T   T   T
  0.8531957383124075  0.8889055479893395  0.3448650503749480   T   T   T
  0.8896545406385470  0.6473117233881052  0.3447388992922997   T   T   T
  0.6065744652186442  0.8462971965626158  0.3624440427392473   T   T   T
  0.6290732493951525  0.8750895782922510  0.4698419412318900   T   T   T
  0.8922329999999974  0.6429189999999991  0.2432099999999977   F   F   F
  0.8577670000000026  0.8929189999999991  0.2432099999999977   F   F   F
  0.6331133374361787  0.6287754162163350  0.4696802491638580   T   T   T
  0.9772968947013368  0.5043063692461952  0.4127038968677409   T   T   T
  0.5353199999999987  0.9927869999999999  0.2948650000000015   F   F   F
  0.7146960000000036  0.7427920000000015  0.2948639999999969   F   F   F
  0.7811700019238705  0.7577908285046719  0.4126868458017475   T   T   T
  0.8771605469385926  0.1187164843957040  0.4769951016346008   T   T   T
  0.8828308613653044  0.8713054748663539  0.4766644756771325   T   T   T
  0.3747968485570313  0.1190989583104911  0.4768796304135275   T   T   T
  0.3765755727365037  0.3662574073652556  0.4748468722873106   T   T   T
  0.8778771701104281  0.6204973888667812  0.4761496696541331   T   T   T
  0.8835992440064376  0.3698596951965522  0.4761488484286075   T   T   T
  0.3706637662388360  0.6250217692297354  0.4738208443872346   T   T   T
  0.3808088525001472  0.8711644560468054  0.4767028418358857   T   T   T
  0.5141424187277264  0.5011582120012140  0.5394192261350687   T   T   T
  0.2537730000000025  0.0183269999999993  0.0511109999999988   F   F   F
  0.2462269999999975  0.4816730000000007  0.1727160000000012   F   F   F
  0.0037730000000025  0.2316730000000007  0.1727160000000012   F   F   F
  0.4962269999999975  0.2683269999999993  0.0511109999999988   F   F   F
  0.2530560000000008  0.0182980000000015  0.2973989999999986   F   F   F
  0.2583801181868327  0.4958925680579226  0.4242844603973588   T   T   T
  0.0025911081821367  0.2462684729388284  0.4238635548142815   T   T   T
  0.4969409999999996  0.2682939999999974  0.2974000000000032   F   F   F
  0.2537730000000025  0.5183269999999993  0.0511109999999988   F   F   F
  0.2462269999999975  0.9816730000000007  0.1727160000000012   F   F   F
  0.0037730000000025  0.7316730000000007  0.1727160000000012   F   F   F
  0.4962269999999975  0.7683269999999993  0.0511109999999988   F   F   F
  0.2530569999999983  0.5183010000000010  0.2973959999999991   F   F   F
  0.2556269630312665  0.9969492050819295  0.4237385740069992   T   T   T
  0.0023307120970326  0.7463160509988560  0.4237155697666278   T   T   T
  0.4969409999999996  0.7683019999999985  0.2974000000000032   F   F   F
  0.7537730000000025  0.0183269999999993  0.0511109999999988   F   F   F
  0.7462269999999975  0.4816730000000007  0.1727160000000012   F   F   F
  0.5037730000000025  0.2316730000000007  0.1727160000000012   F   F   F
  0.9962269999999975  0.2683269999999993  0.0511109999999988   F   F   F
  0.7530720000000031  0.0183019999999985  0.2974030000000027   F   F   F
  0.7528787495108442  0.4959347566479105  0.4252161879182678   T   T   T
  0.5019102263785605  0.2488008094529934  0.4250665996981493   T   T   T
  0.9969310000000036  0.2682969999999969  0.2973980000000012   F   F   F
  0.7537730000000025  0.5183269999999993  0.0511109999999988   F   F   F
  0.7462269999999975  0.9816730000000007  0.1727160000000012   F   F   F
  0.5037730000000025  0.7316730000000007  0.1727160000000012   F   F   F
  0.9962269999999975  0.7683269999999993  0.0511109999999988   F   F   F
  0.7530739999999980  0.5183040000000005  0.2973989999999986   F   F   F
  0.7559506728666396  0.9966320237100920  0.4238043071756561   T   T   T
  0.5015530440105804  0.7441770178321204  0.4246238845954035   T   T   T
  0.9969310000000036  0.7683049999999980  0.2973989999999986   F   F   F
 
  0.00000000E+00  0.00000000E+00  0.00000000E+00
  0.00000000E+00  0.00000000E+00  0.00000000E+00
  0.00000000E+00  0.00000000E+00  0.00000000E+00
  0.00000000E+00  0.00000000E+00  0.00000000E+00
  0.00000000E+00  0.00000000E+00  0.00000000E+00
  0.00000000E+00  0.00000000E+00  0.00000000E+00
  0.00000000E+00  0.00000000E+00  0.00000000E+00
  0.00000000E+00  0.00000000E+00  0.00000000E+00
  0.00000000E+00  0.00000000E+00  0.00000000E+00
  0.00000000E+00  0.00000000E+00  0.00000000E+00
  0.00000000E+00  0.00000000E+00  0.00000000E+00
  0.00000000E+00  0.00000000E+00  0.00000000E+00
  0.00000000E+00  0.00000000E+00  0.00000000E+00
  0.00000000E+00  0.00000000E+00  0.00000000E+00
  0.00000000E+00  0.00000000E+00  0.00000000E+00
  0.00000000E+00  0.00000000E+00  0.00000000E+00
  0.00000000E+00  0.00000000E+00  0.00000000E+00
  0.00000000E+00  0.00000000E+00  0.00000000E+00
  0.00000000E+00  0.00000000E+00  0.00000000E+00
  0.00000000E+00  0.00000000E+00  0.00000000E+00
  0.00000000E+00  0.00000000E+00  0.00000000E+00
  0.00000000E+00  0.00000000E+00  0.00000000E+00
  0.00000000E+00  0.00000000E+00  0.00000000E+00
  0.00000000E+00  0.00000000E+00  0.00000000E+00
  0.00000000E+00  0.00000000E+00  0.00000000E+00
  0.00000000E+00  0.00000000E+00  0.00000000E+00
  0.00000000E+00  0.00000000E+00  0.00000000E+00
  0.00000000E+00  0.00000000E+00  0.00000000E+00
  0.00000000E+00  0.00000000E+00  0.00000000E+00
  0.00000000E+00  0.00000000E+00  0.00000000E+00
  0.00000000E+00  0.00000000E+00  0.00000000E+00
  0.00000000E+00  0.00000000E+00  0.00000000E+00
  0.00000000E+00  0.00000000E+00  0.00000000E+00
  0.00000000E+00  0.00000000E+00  0.00000000E+00
  0.00000000E+00  0.00000000E+00  0.00000000E+00
  0.00000000E+00  0.00000000E+00  0.00000000E+00
  0.00000000E+00  0.00000000E+00  0.00000000E+00
  0.00000000E+00  0.00000000E+00  0.00000000E+00
  0.00000000E+00  0.00000000E+00  0.00000000E+00
  0.00000000E+00  0.00000000E+00  0.00000000E+00
  0.00000000E+00  0.00000000E+00  0.00000000E+00
  0.00000000E+00  0.00000000E+00  0.00000000E+00
  0.00000000E+00  0.00000000E+00  0.00000000E+00
  0.00000000E+00  0.00000000E+00  0.00000000E+00
  0.00000000E+00  0.00000000E+00  0.00000000E+00
  0.00000000E+00  0.00000000E+00  0.00000000E+00
  0.00000000E+00  0.00000000E+00  0.00000000E+00
  0.00000000E+00  0.00000000E+00  0.00000000E+00
  0.00000000E+00  0.00000000E+00  0.00000000E+00
  0.00000000E+00  0.00000000E+00  0.00000000E+00
  0.00000000E+00  0.00000000E+00  0.00000000E+00
  0.00000000E+00  0.00000000E+00  0.00000000E+00
  0.00000000E+00  0.00000000E+00  0.00000000E+00
  0.00000000E+00  0.00000000E+00  0.00000000E+00
  0.00000000E+00  0.00000000E+00  0.00000000E+00
  0.00000000E+00  0.00000000E+00  0.00000000E+00
  0.00000000E+00  0.00000000E+00  0.00000000E+00
  0.00000000E+00  0.00000000E+00  0.00000000E+00
  0.00000000E+00  0.00000000E+00  0.00000000E+00
  0.00000000E+00  0.00000000E+00  0.00000000E+00
  0.00000000E+00  0.00000000E+00  0.00000000E+00
  0.00000000E+00  0.00000000E+00  0.00000000E+00
  0.00000000E+00  0.00000000E+00  0.00000000E+00
  0.00000000E+00  0.00000000E+00  0.00000000E+00
  0.00000000E+00  0.00000000E+00  0.00000000E+00
  0.00000000E+00  0.00000000E+00  0.00000000E+00
  0.00000000E+00  0.00000000E+00  0.00000000E+00
  0.00000000E+00  0.00000000E+00  0.00000000E+00
  0.00000000E+00  0.00000000E+00  0.00000000E+00
  0.00000000E+00  0.00000000E+00  0.00000000E+00
  0.00000000E+00  0.00000000E+00  0.00000000E+00
  0.00000000E+00  0.00000000E+00  0.00000000E+00
  0.00000000E+00  0.00000000E+00  0.00000000E+00
  0.00000000E+00  0.00000000E+00  0.00000000E+00
  0.00000000E+00  0.00000000E+00  0.00000000E+00
  0.00000000E+00  0.00000000E+00  0.00000000E+00
  0.00000000E+00  0.00000000E+00  0.00000000E+00
  0.00000000E+00  0.00000000E+00  0.00000000E+00
  0.00000000E+00  0.00000000E+00  0.00000000E+00
  0.00000000E+00  0.00000000E+00  0.00000000E+00
  0.00000000E+00  0.00000000E+00  0.00000000E+00
  0.00000000E+00  0.00000000E+00  0.00000000E+00
  0.00000000E+00  0.00000000E+00  0.00000000E+00
  0.00000000E+00  0.00000000E+00  0.00000000E+00
  0.00000000E+00  0.00000000E+00  0.00000000E+00
  0.00000000E+00  0.00000000E+00  0.00000000E+00
  0.00000000E+00  0.00000000E+00  0.00000000E+00
  0.00000000E+00  0.00000000E+00  0.00000000E+00
  0.00000000E+00  0.00000000E+00  0.00000000E+00
  0.00000000E+00  0.00000000E+00  0.00000000E+00
  0.00000000E+00  0.00000000E+00  0.00000000E+00
  0.00000000E+00  0.00000000E+00  0.00000000E+00
  0.00000000E+00  0.00000000E+00  0.00000000E+00
  0.00000000E+00  0.00000000E+00  0.00000000E+00
  0.00000000E+00  0.00000000E+00  0.00000000E+00
  0.00000000E+00  0.00000000E+00  0.00000000E+00
  0.00000000E+00  0.00000000E+00  0.00000000E+00
  0.00000000E+00  0.00000000E+00  0.00000000E+00
  0.00000000E+00  0.00000000E+00  0.00000000E+00
  0.00000000E+00  0.00000000E+00  0.00000000E+00
  0.00000000E+00  0.00000000E+00  0.00000000E+00
  0.00000000E+00  0.00000000E+00  0.00000000E+00
  0.00000000E+00  0.00000000E+00  0.00000000E+00
  0.00000000E+00  0.00000000E+00  0.00000000E+00
  0.00000000E+00  0.00000000E+00  0.00000000E+00
  0.00000000E+00  0.00000000E+00  0.00000000E+00
  0.00000000E+00  0.00000000E+00  0.00000000E+00
  0.00000000E+00  0.00000000E+00  0.00000000E+00
  0.00000000E+00  0.00000000E+00  0.00000000E+00
  0.00000000E+00  0.00000000E+00  0.00000000E+00
  0.00000000E+00  0.00000000E+00  0.00000000E+00
  0.00000000E+00  0.00000000E+00  0.00000000E+00
  0.00000000E+00  0.00000000E+00  0.00000000E+00
  0.00000000E+00  0.00000000E+00  0.00000000E+00
  0.00000000E+00  0.00000000E+00  0.00000000E+00
  0.00000000E+00  0.00000000E+00  0.00000000E+00
  0.00000000E+00  0.00000000E+00  0.00000000E+00
  0.00000000E+00  0.00000000E+00  0.00000000E+00
  0.00000000E+00  0.00000000E+00  0.00000000E+00
  0.00000000E+00  0.00000000E+00  0.00000000E+00
  0.00000000E+00  0.00000000E+00  0.00000000E+00
  0.00000000E+00  0.00000000E+00  0.00000000E+00
  0.00000000E+00  0.00000000E+00  0.00000000E+00
  0.00000000E+00  0.00000000E+00  0.00000000E+00
  0.00000000E+00  0.00000000E+00  0.00000000E+00
  0.00000000E+00  0.00000000E+00  0.00000000E+00
  0.00000000E+00  0.00000000E+00  0.00000000E+00
  0.00000000E+00  0.00000000E+00  0.00000000E+00
  0.00000000E+00  0.00000000E+00  0.00000000E+00
  0.00000000E+00  0.00000000E+00  0.00000000E+00
  0.00000000E+00  0.00000000E+00  0.00000000E+00
  0.00000000E+00  0.00000000E+00  0.00000000E+00
  0.00000000E+00  0.00000000E+00  0.00000000E+00
  0.00000000E+00  0.00000000E+00  0.00000000E+00
  0.00000000E+00  0.00000000E+00  0.00000000E+00
  0.00000000E+00  0.00000000E+00  0.00000000E+00
  0.00000000E+00  0.00000000E+00  0.00000000E+00
  0.00000000E+00  0.00000000E+00  0.00000000E+00
  0.00000000E+00  0.00000000E+00  0.00000000E+00
  0.00000000E+00  0.00000000E+00  0.00000000E+00
  0.00000000E+00  0.00000000E+00  0.00000000E+00
  0.00000000E+00  0.00000000E+00  0.00000000E+00
  0.00000000E+00  0.00000000E+00  0.00000000E+00
  0.00000000E+00  0.00000000E+00  0.00000000E+00
  0.00000000E+00  0.00000000E+00  0.00000000E+00
  0.00000000E+00  0.00000000E+00  0.00000000E+00
  0.00000000E+00  0.00000000E+00  0.00000000E+00
  0.00000000E+00  0.00000000E+00  0.00000000E+00
  0.00000000E+00  0.00000000E+00  0.00000000E+00
  0.00000000E+00  0.00000000E+00  0.00000000E+00
  0.00000000E+00  0.00000000E+00  0.00000000E+00
  0.00000000E+00  0.00000000E+00  0.00000000E+00
  0.00000000E+00  0.00000000E+00  0.00000000E+00
  0.00000000E+00  0.00000000E+00  0.00000000E+00
  0.00000000E+00  0.00000000E+00  0.00000000E+00
  0.00000000E+00  0.00000000E+00  0.00000000E+00
  0.00000000E+00  0.00000000E+00  0.00000000E+00
  0.00000000E+00  0.00000000E+00  0.00000000E+00
  0.00000000E+00  0.00000000E+00  0.00000000E+00
  0.00000000E+00  0.00000000E+00  0.00000000E+00
  0.00000000E+00  0.00000000E+00  0.00000000E+00
