Converted by xsd2pos.py                 
    1.000000000000000     
    11.1038399999999999    0.0000000000000000    0.0000000000000000
     0.0000000000000000   11.2002380000000006    0.0000000000000000
     0.0000000000000000    0.0000000000000000   32.4346430000000012
   Mn   O    La   H 
    32    96    32     1
Selective dynamics
Direct
  0.0024985035813726  0.0001634752910683  0.4770912962608396   T   T   T
  0.2569578921083007  0.2451982199667646  0.4775243554903815   T   T   T
  0.2500000000000000  0.2500000000000000  0.1119130000000013   F   F   F
  0.0000000000000000  0.0000000000000000  0.1119130000000013   F   F   F
  0.0000000000000000  0.0000000000000000  0.2335179999999966   F   F   F
  0.2500000000000000  0.2500000000000000  0.2335179999999966   F   F   F
  0.2509363332367976  0.2493734641242571  0.3549380311042086   T   T   T
  0.0046632103187071  0.0025353069467145  0.3549516770164458   T   T   T
  0.0049856089852794  0.4925521589117305  0.4782586298202317   T   T   T
  0.2477899825419112  0.7540280150609613  0.4789457581675104   T   T   T
  0.2500000000000000  0.7500000000000000  0.1119130000000013   F   F   F
  0.0000000000000000  0.5000000000000000  0.1119130000000013   F   F   F
  0.0000000000000000  0.5000000000000000  0.2335179999999966   F   F   F
  0.2500000000000000  0.7500000000000000  0.2335179999999966   F   F   F
  0.2498637283822185  0.7495425815573223  0.3561491856432602   T   T   T
  0.0032155721968088  0.5014229005416154  0.3547005802410575   T   T   T
  0.5047958725152916  0.9914136419394616  0.4776551007425099   T   T   T
  0.7572961014843238  0.2423198518708877  0.4765871376797673   T   T   T
  0.7500000000000000  0.2500000000000000  0.1119130000000013   F   F   F
  0.5000000000000000  0.0000000000000000  0.1119130000000013   F   F   F
  0.5000000000000000  0.0000000000000000  0.2335179999999966   F   F   F
  0.7500000000000000  0.2500000000000000  0.2335179999999966   F   F   F
  0.7494842580840619  0.2502680611800117  0.3553972431036329   T   T   T
  0.5038451601723407  0.0004689226733370  0.3547860403305239   T   T   T
  0.5080065710426386  0.4810673757077654  0.4726849484074291   T   T   T
  0.7531220443968341  0.7436415254703103  0.4806352909753713   T   T   T
  0.7500000000000000  0.7500000000000000  0.1119130000000013   F   F   F
  0.5000000000000000  0.5000000000000000  0.1119130000000013   F   F   F
  0.5000000000000000  0.5000000000000000  0.2335179999999966   F   F   F
  0.7500000000000000  0.7500000000000000  0.2335179999999966   F   F   F
  0.7496375747105785  0.7488111664690285  0.3563282885330690   T   T   T
  0.5017759891474352  0.5021021459212097  0.3573135217163967   T   T   T
  0.1422340000000020  0.1070800000000034  0.1216050000000024   F   F   F
  0.3577670000000026  0.3929199999999966  0.1022210000000001   F   F   F
  0.3922329999999974  0.1429189999999991  0.1022210000000001   F   F   F
  0.1077670000000026  0.3570800000000034  0.1216050000000024   F   F   F
  0.1077670000000026  0.3570800000000034  0.2238270000000000   F   F   F
  0.1422340000000020  0.1070800000000034  0.2238270000000000   F   F   F
  0.4630960000000002  0.0077810000000014  0.1727160000000012   F   F   F
  0.0369039999999998  0.4922189999999986  0.0511109999999988   F   F   F
  0.2130960000000002  0.2422189999999986  0.0511109999999988   F   F   F
  0.2869039999999998  0.2577810000000014  0.1727160000000012   F   F   F
  0.1561419087744379  0.1058546833040075  0.3615674301668140   T   T   T
  0.3526255360535330  0.3896399171884580  0.3457460532935566   T   T   T
  0.3909316633238889  0.1475539827091534  0.3445717549184186   T   T   T
  0.1111835390745643  0.3494226789776785  0.3628990523219958   T   T   T
  0.1281773993110739  0.3671677246546778  0.4686725211471004   T   T   T
  0.3922329999999974  0.1429189999999991  0.2432099999999977   F   F   F
  0.3577670000000026  0.3929199999999966  0.2432099999999977   F   F   F
  0.1318757196342889  0.1245889551898739  0.4686608803149452   T   T   T
  0.4756030588404287  0.0042436432007070  0.4114658003407445   T   T   T
  0.0353039999999964  0.4927890000000019  0.2948599999999999   F   F   F
  0.2146789999999967  0.2427849999999978  0.2948609999999974   F   F   F
  0.2823944357327130  0.2523728929895067  0.4117813877593740   T   T   T
  0.1422340000000020  0.6070810000000009  0.1216050000000024   F   F   F
  0.3577670000000026  0.8929189999999991  0.1022210000000001   F   F   F
  0.3922329999999974  0.6429189999999991  0.1022210000000001   F   F   F
  0.1077670000000026  0.8570810000000009  0.1216050000000024   F   F   F
  0.1077670000000026  0.8570810000000009  0.2238270000000000   F   F   F
  0.1422340000000020  0.6070810000000009  0.2238270000000000   F   F   F
  0.4630960000000002  0.5077810000000014  0.1727160000000012   F   F   F
  0.0369039999999998  0.9922189999999986  0.0511109999999988   F   F   F
  0.2130960000000002  0.7422189999999986  0.0511109999999988   F   F   F
  0.2869039999999998  0.7577810000000014  0.1727160000000012   F   F   F
  0.1529373917517925  0.6056136821363752  0.3612425905227264   T   T   T
  0.3543028368014527  0.8894641989340447  0.3458233784541339   T   T   T
  0.3884482897525811  0.6487454855354119  0.3440871053746620   T   T   T
  0.1087393928784638  0.8478885555297304  0.3635890585739166   T   T   T
  0.1238640819526005  0.8814614522412592  0.4679339293488908   T   T   T
  0.3922329999999974  0.6429189999999991  0.2432099999999977   F   F   F
  0.3577670000000026  0.8929189999999991  0.2432099999999977   F   F   F
  0.1346900556612452  0.6126940511396954  0.4703659083370194   T   T   T
  0.4522964027472597  0.5242861973723014  0.4170900958547877   T   T   T
  0.0353039999999964  0.9927899999999994  0.2948639999999969   F   F   F
  0.2146779999999993  0.7427940000000035  0.2948629999999994   F   F   F
  0.2820728190585644  0.7474661783435130  0.4141649756010924   T   T   T
  0.6422329999999974  0.1070800000000034  0.1216050000000024   F   F   F
  0.8577670000000026  0.3929199999999966  0.1022210000000001   F   F   F
  0.8922329999999974  0.1429189999999991  0.1022210000000001   F   F   F
  0.6077670000000026  0.3570800000000034  0.1216050000000024   F   F   F
  0.6077670000000026  0.3570800000000034  0.2238270000000000   F   F   F
  0.6422329999999974  0.1070800000000034  0.2238270000000000   F   F   F
  0.9630960000000002  0.0077810000000014  0.1727160000000012   F   F   F
  0.5369039999999998  0.4922189999999986  0.0511109999999988   F   F   F
  0.7130960000000002  0.2422189999999986  0.0511109999999988   F   F   F
  0.7869039999999998  0.2577810000000014  0.1727160000000012   F   F   F
  0.6511281388954087  0.1078486305270091  0.3625366206927610   T   T   T
  0.8546407746400138  0.3901390035534223  0.3453431689529542   T   T   T
  0.8889470641716030  0.1467630116793581  0.3433017162049560   T   T   T
  0.6077791062833976  0.3495692869064198  0.3641792491962487   T   T   T
  0.6340688904246948  0.3612536978198383  0.4656653736924328   T   T   T
  0.8922329999999974  0.1429189999999991  0.2432099999999977   F   F   F
  0.8577670000000026  0.3929199999999966  0.2432099999999977   F   F   F
  0.6301446810264834  0.1180258379613186  0.4679662370516299   T   T   T
  0.9807199401434341  0.0157405222150604  0.4112160239677568   T   T   T
  0.5353220000000007  0.4927869999999999  0.2948620000000020   F   F   F
  0.7146970000000010  0.2427849999999978  0.2948620000000020   F   F   F
  0.7838700507389759  0.2495145799317491  0.4116167338491806   T   T   T
  0.6422329999999974  0.6070810000000009  0.1216050000000024   F   F   F
  0.8577670000000026  0.8929189999999991  0.1022210000000001   F   F   F
  0.8922329999999974  0.6429189999999991  0.1022210000000001   F   F   F
  0.6077670000000026  0.8570810000000009  0.1216050000000024   F   F   F
  0.6077670000000026  0.8570810000000009  0.2238270000000000   F   F   F
  0.6422329999999974  0.6070810000000009  0.2238270000000000   F   F   F
  0.9630960000000002  0.5077810000000014  0.1727160000000012   F   F   F
  0.5369039999999998  0.9922189999999986  0.0511109999999988   F   F   F
  0.7130960000000002  0.7422189999999986  0.0511109999999988   F   F   F
  0.7869039999999998  0.7577810000000014  0.1727160000000012   F   F   F
  0.6502835761901020  0.6067356438691202  0.3635395390203754   T   T   T
  0.8548685536140050  0.8907789895044411  0.3463784779431897   T   T   T
  0.8881348315991405  0.6463031717345148  0.3450361811599672   T   T   T
  0.6092013895830661  0.8489514069490210  0.3625244105836762   T   T   T
  0.6284858510223189  0.8732823845473119  0.4667746238797014   T   T   T
  0.8922329999999974  0.6429189999999991  0.2432099999999977   F   F   F
  0.8577670000000026  0.8929189999999991  0.2432099999999977   F   F   F
  0.6155986127507909  0.6119354567292968  0.4668908547842250   T   T   T
  0.9831362756663454  0.5028423581558898  0.4118145840612618   T   T   T
  0.5353199999999987  0.9927869999999999  0.2948650000000015   F   F   F
  0.7146960000000036  0.7427920000000015  0.2948639999999969   F   F   F
  0.7778280745127504  0.7470846256246731  0.4152022198961696   T   T   T
  0.8778917107056070  0.1213356885890348  0.4766681333018518   T   T   T
  0.8877877598586023  0.8766576440053391  0.4705793893492244   T   T   T
  0.3773289493762632  0.1176058873629049  0.4750738582209388   T   T   T
  0.3749296102205120  0.3729627808565686  0.4774370742747819   T   T   T
  0.8815361737850860  0.6143152124063462  0.4751778438956485   T   T   T
  0.8814274217461024  0.3684226771750497  0.4748479573660765   T   T   T
  0.7389273086444297  0.7418909926954167  0.5373157921297940   T   T   T
  0.3905959883934448  0.8621527243600563  0.4760543355884857   T   T   T
  0.2537730000000025  0.0183269999999993  0.0511109999999988   F   F   F
  0.2462269999999975  0.4816730000000007  0.1727160000000012   F   F   F
  0.0037730000000025  0.2316730000000007  0.1727160000000012   F   F   F
  0.4962269999999975  0.2683269999999993  0.0511109999999988   F   F   F
  0.2530560000000008  0.0182980000000015  0.2973989999999986   F   F   F
  0.2409358252511868  0.4843619931232555  0.4182355053248528   T   T   T
  0.0021814997499530  0.2424163684807331  0.4223745649339446   T   T   T
  0.4969409999999996  0.2682939999999974  0.2974000000000032   F   F   F
  0.2537730000000025  0.5183269999999993  0.0511109999999988   F   F   F
  0.2462269999999975  0.9816730000000007  0.1727160000000012   F   F   F
  0.0037730000000025  0.7316730000000007  0.1727160000000012   F   F   F
  0.4962269999999975  0.7683269999999993  0.0511109999999988   F   F   F
  0.2530569999999983  0.5183010000000010  0.2973959999999991   F   F   F
  0.2538544295750215  0.9957566366376934  0.4223401304361071   T   T   T
  0.0008677074170059  0.7446976789175392  0.4245835010257921   T   T   T
  0.4969409999999996  0.7683019999999985  0.2974000000000032   F   F   F
  0.7537730000000025  0.0183269999999993  0.0511109999999988   F   F   F
  0.7462269999999975  0.4816730000000007  0.1727160000000012   F   F   F
  0.5037730000000025  0.2316730000000007  0.1727160000000012   F   F   F
  0.9962269999999975  0.2683269999999993  0.0511109999999988   F   F   F
  0.7530720000000031  0.0183019999999985  0.2974030000000027   F   F   F
  0.7623976638367287  0.4947406701195480  0.4229105851676038   T   T   T
  0.5042044196085150  0.2308539883443319  0.4208380741547072   T   T   T
  0.9969310000000036  0.2682969999999969  0.2973980000000012   F   F   F
  0.7537730000000025  0.5183269999999993  0.0511109999999988   F   F   F
  0.7462269999999975  0.9816730000000007  0.1727160000000012   F   F   F
  0.5037730000000025  0.7316730000000007  0.1727160000000012   F   F   F
  0.9962269999999975  0.7683269999999993  0.0511109999999988   F   F   F
  0.7530739999999980  0.5183040000000005  0.2973989999999986   F   F   F
  0.7600105827058099  0.9922968623364167  0.4226122032103982   T   T   T
  0.5065776217559388  0.7485809138640263  0.4199750254157439   T   T   T
  0.9969310000000036  0.7683049999999980  0.2973989999999986   F   F   F
  0.7891067596354745  0.6766602732588919  0.5474331206357919   T   T   T
 
  0.00000000E+00  0.00000000E+00  0.00000000E+00
  0.00000000E+00  0.00000000E+00  0.00000000E+00
  0.00000000E+00  0.00000000E+00  0.00000000E+00
  0.00000000E+00  0.00000000E+00  0.00000000E+00
  0.00000000E+00  0.00000000E+00  0.00000000E+00
  0.00000000E+00  0.00000000E+00  0.00000000E+00
  0.00000000E+00  0.00000000E+00  0.00000000E+00
  0.00000000E+00  0.00000000E+00  0.00000000E+00
  0.00000000E+00  0.00000000E+00  0.00000000E+00
  0.00000000E+00  0.00000000E+00  0.00000000E+00
  0.00000000E+00  0.00000000E+00  0.00000000E+00
  0.00000000E+00  0.00000000E+00  0.00000000E+00
  0.00000000E+00  0.00000000E+00  0.00000000E+00
  0.00000000E+00  0.00000000E+00  0.00000000E+00
  0.00000000E+00  0.00000000E+00  0.00000000E+00
  0.00000000E+00  0.00000000E+00  0.00000000E+00
  0.00000000E+00  0.00000000E+00  0.00000000E+00
  0.00000000E+00  0.00000000E+00  0.00000000E+00
  0.00000000E+00  0.00000000E+00  0.00000000E+00
  0.00000000E+00  0.00000000E+00  0.00000000E+00
  0.00000000E+00  0.00000000E+00  0.00000000E+00
  0.00000000E+00  0.00000000E+00  0.00000000E+00
  0.00000000E+00  0.00000000E+00  0.00000000E+00
  0.00000000E+00  0.00000000E+00  0.00000000E+00
  0.00000000E+00  0.00000000E+00  0.00000000E+00
  0.00000000E+00  0.00000000E+00  0.00000000E+00
  0.00000000E+00  0.00000000E+00  0.00000000E+00
  0.00000000E+00  0.00000000E+00  0.00000000E+00
  0.00000000E+00  0.00000000E+00  0.00000000E+00
  0.00000000E+00  0.00000000E+00  0.00000000E+00
  0.00000000E+00  0.00000000E+00  0.00000000E+00
  0.00000000E+00  0.00000000E+00  0.00000000E+00
  0.00000000E+00  0.00000000E+00  0.00000000E+00
  0.00000000E+00  0.00000000E+00  0.00000000E+00
  0.00000000E+00  0.00000000E+00  0.00000000E+00
  0.00000000E+00  0.00000000E+00  0.00000000E+00
  0.00000000E+00  0.00000000E+00  0.00000000E+00
  0.00000000E+00  0.00000000E+00  0.00000000E+00
  0.00000000E+00  0.00000000E+00  0.00000000E+00
  0.00000000E+00  0.00000000E+00  0.00000000E+00
  0.00000000E+00  0.00000000E+00  0.00000000E+00
  0.00000000E+00  0.00000000E+00  0.00000000E+00
  0.00000000E+00  0.00000000E+00  0.00000000E+00
  0.00000000E+00  0.00000000E+00  0.00000000E+00
  0.00000000E+00  0.00000000E+00  0.00000000E+00
  0.00000000E+00  0.00000000E+00  0.00000000E+00
  0.00000000E+00  0.00000000E+00  0.00000000E+00
  0.00000000E+00  0.00000000E+00  0.00000000E+00
  0.00000000E+00  0.00000000E+00  0.00000000E+00
  0.00000000E+00  0.00000000E+00  0.00000000E+00
  0.00000000E+00  0.00000000E+00  0.00000000E+00
  0.00000000E+00  0.00000000E+00  0.00000000E+00
  0.00000000E+00  0.00000000E+00  0.00000000E+00
  0.00000000E+00  0.00000000E+00  0.00000000E+00
  0.00000000E+00  0.00000000E+00  0.00000000E+00
  0.00000000E+00  0.00000000E+00  0.00000000E+00
  0.00000000E+00  0.00000000E+00  0.00000000E+00
  0.00000000E+00  0.00000000E+00  0.00000000E+00
  0.00000000E+00  0.00000000E+00  0.00000000E+00
  0.00000000E+00  0.00000000E+00  0.00000000E+00
  0.00000000E+00  0.00000000E+00  0.00000000E+00
  0.00000000E+00  0.00000000E+00  0.00000000E+00
  0.00000000E+00  0.00000000E+00  0.00000000E+00
  0.00000000E+00  0.00000000E+00  0.00000000E+00
  0.00000000E+00  0.00000000E+00  0.00000000E+00
  0.00000000E+00  0.00000000E+00  0.00000000E+00
  0.00000000E+00  0.00000000E+00  0.00000000E+00
  0.00000000E+00  0.00000000E+00  0.00000000E+00
  0.00000000E+00  0.00000000E+00  0.00000000E+00
  0.00000000E+00  0.00000000E+00  0.00000000E+00
  0.00000000E+00  0.00000000E+00  0.00000000E+00
  0.00000000E+00  0.00000000E+00  0.00000000E+00
  0.00000000E+00  0.00000000E+00  0.00000000E+00
  0.00000000E+00  0.00000000E+00  0.00000000E+00
  0.00000000E+00  0.00000000E+00  0.00000000E+00
  0.00000000E+00  0.00000000E+00  0.00000000E+00
  0.00000000E+00  0.00000000E+00  0.00000000E+00
  0.00000000E+00  0.00000000E+00  0.00000000E+00
  0.00000000E+00  0.00000000E+00  0.00000000E+00
  0.00000000E+00  0.00000000E+00  0.00000000E+00
  0.00000000E+00  0.00000000E+00  0.00000000E+00
  0.00000000E+00  0.00000000E+00  0.00000000E+00
  0.00000000E+00  0.00000000E+00  0.00000000E+00
  0.00000000E+00  0.00000000E+00  0.00000000E+00
  0.00000000E+00  0.00000000E+00  0.00000000E+00
  0.00000000E+00  0.00000000E+00  0.00000000E+00
  0.00000000E+00  0.00000000E+00  0.00000000E+00
  0.00000000E+00  0.00000000E+00  0.00000000E+00
  0.00000000E+00  0.00000000E+00  0.00000000E+00
  0.00000000E+00  0.00000000E+00  0.00000000E+00
  0.00000000E+00  0.00000000E+00  0.00000000E+00
  0.00000000E+00  0.00000000E+00  0.00000000E+00
  0.00000000E+00  0.00000000E+00  0.00000000E+00
  0.00000000E+00  0.00000000E+00  0.00000000E+00
  0.00000000E+00  0.00000000E+00  0.00000000E+00
  0.00000000E+00  0.00000000E+00  0.00000000E+00
  0.00000000E+00  0.00000000E+00  0.00000000E+00
  0.00000000E+00  0.00000000E+00  0.00000000E+00
  0.00000000E+00  0.00000000E+00  0.00000000E+00
  0.00000000E+00  0.00000000E+00  0.00000000E+00
  0.00000000E+00  0.00000000E+00  0.00000000E+00
  0.00000000E+00  0.00000000E+00  0.00000000E+00
  0.00000000E+00  0.00000000E+00  0.00000000E+00
  0.00000000E+00  0.00000000E+00  0.00000000E+00
  0.00000000E+00  0.00000000E+00  0.00000000E+00
  0.00000000E+00  0.00000000E+00  0.00000000E+00
  0.00000000E+00  0.00000000E+00  0.00000000E+00
  0.00000000E+00  0.00000000E+00  0.00000000E+00
  0.00000000E+00  0.00000000E+00  0.00000000E+00
  0.00000000E+00  0.00000000E+00  0.00000000E+00
  0.00000000E+00  0.00000000E+00  0.00000000E+00
  0.00000000E+00  0.00000000E+00  0.00000000E+00
  0.00000000E+00  0.00000000E+00  0.00000000E+00
  0.00000000E+00  0.00000000E+00  0.00000000E+00
  0.00000000E+00  0.00000000E+00  0.00000000E+00
  0.00000000E+00  0.00000000E+00  0.00000000E+00
  0.00000000E+00  0.00000000E+00  0.00000000E+00
  0.00000000E+00  0.00000000E+00  0.00000000E+00
  0.00000000E+00  0.00000000E+00  0.00000000E+00
  0.00000000E+00  0.00000000E+00  0.00000000E+00
  0.00000000E+00  0.00000000E+00  0.00000000E+00
  0.00000000E+00  0.00000000E+00  0.00000000E+00
  0.00000000E+00  0.00000000E+00  0.00000000E+00
  0.00000000E+00  0.00000000E+00  0.00000000E+00
  0.00000000E+00  0.00000000E+00  0.00000000E+00
  0.00000000E+00  0.00000000E+00  0.00000000E+00
  0.00000000E+00  0.00000000E+00  0.00000000E+00
  0.00000000E+00  0.00000000E+00  0.00000000E+00
  0.00000000E+00  0.00000000E+00  0.00000000E+00
  0.00000000E+00  0.00000000E+00  0.00000000E+00
  0.00000000E+00  0.00000000E+00  0.00000000E+00
  0.00000000E+00  0.00000000E+00  0.00000000E+00
  0.00000000E+00  0.00000000E+00  0.00000000E+00
  0.00000000E+00  0.00000000E+00  0.00000000E+00
  0.00000000E+00  0.00000000E+00  0.00000000E+00
  0.00000000E+00  0.00000000E+00  0.00000000E+00
  0.00000000E+00  0.00000000E+00  0.00000000E+00
  0.00000000E+00  0.00000000E+00  0.00000000E+00
  0.00000000E+00  0.00000000E+00  0.00000000E+00
  0.00000000E+00  0.00000000E+00  0.00000000E+00
  0.00000000E+00  0.00000000E+00  0.00000000E+00
  0.00000000E+00  0.00000000E+00  0.00000000E+00
  0.00000000E+00  0.00000000E+00  0.00000000E+00
  0.00000000E+00  0.00000000E+00  0.00000000E+00
  0.00000000E+00  0.00000000E+00  0.00000000E+00
  0.00000000E+00  0.00000000E+00  0.00000000E+00
  0.00000000E+00  0.00000000E+00  0.00000000E+00
  0.00000000E+00  0.00000000E+00  0.00000000E+00
  0.00000000E+00  0.00000000E+00  0.00000000E+00
  0.00000000E+00  0.00000000E+00  0.00000000E+00
  0.00000000E+00  0.00000000E+00  0.00000000E+00
  0.00000000E+00  0.00000000E+00  0.00000000E+00
  0.00000000E+00  0.00000000E+00  0.00000000E+00
  0.00000000E+00  0.00000000E+00  0.00000000E+00
  0.00000000E+00  0.00000000E+00  0.00000000E+00
  0.00000000E+00  0.00000000E+00  0.00000000E+00
  0.00000000E+00  0.00000000E+00  0.00000000E+00
  0.00000000E+00  0.00000000E+00  0.00000000E+00
  0.00000000E+00  0.00000000E+00  0.00000000E+00
  0.00000000E+00  0.00000000E+00  0.00000000E+00
  0.00000000E+00  0.00000000E+00  0.00000000E+00
